  Job Started  at 16:50.04 13th July       2009

  Number of CPUs =     1

  Total number of configurations input =   1

*  Input for Configuration =   1                                               *

  Formula = Ba3Fe6O12

  Number of irreducible atoms/shells =      42

  Total number atoms/shells =      42

  Dimensionality = 3               :  Bulk

  Cartesian lattice vectors (Angstroms) :

       10.944693    0.000000    0.000000
        3.123705    4.493221    0.000000
        3.123705    1.632784    4.186054

  Cell parameters (Angstroms/Degrees):

  a =      10.9447    alpha =  55.1928
  b =       5.4723    beta  =  55.1928
  c =       5.4723    gamma =  55.1928

  Initial cell volume =         205.857279 Angs**3

  Temperature of configuration =  0.000     K

  Pressure of configuration =         0.000 GPa

  Fractional coordinates of asymmetric unit :

   No.  Atomic       x           y          z         Charge      Occupancy
        Label      (Frac)      (Frac)     (Frac)        (e)         (Frac)
      1 Ba    c    0.572390    0.144780    0.144780      0.1690    1.000000
      2 Ba    c    0.677610 *  0.355219 *  0.355219 *    0.1690    1.000000
      3 Fe    c    0.822391 *  0.644781 *  0.644781 *    1.9710    1.000000
      4 Fe    c    0.927610 *  0.855219 *  0.855219 *    1.9710    1.000000
      5 Fe    c    0.072390 *  0.144780 *  0.144780 *    1.9710    1.000000
      6 Fe    c    0.177610 *  0.355219 *  0.355219 *    1.9710    1.000000
      7 Fe    c    0.322391 *  0.644781 *  0.644781 *    1.9710    1.000000
      8 Fe    c    0.427610 *  0.855219 *  0.855219 *    1.9710    1.000000
      9 O     c    0.778081 *  0.943838 *  0.250000 *    0.5130    1.000000
     10 O     c    0.625000 *  0.556161 *  0.943839 *    0.5130    1.000000
     11 O     c    0.971919 *  0.250000 *  0.556162 *    0.5130    1.000000
     12 O     c    0.721919 *  0.056162 *  0.750000 *    0.5130    1.000000
     13 O     c    0.875000 *  0.443839 *  0.056161 *    0.5130    1.000000
     14 O     c    0.528081 *  0.750000 *  0.443838 *    0.5130    1.000000
     15 O     c    0.278081 *  0.943838 *  0.250000 *    0.5130    1.000000
     16 O     c    0.125000 *  0.556161 *  0.943839 *    0.5130    1.000000
     17 O     c    0.471919 *  0.250000 *  0.556162 *    0.5130    1.000000
     18 O     c    0.221919 *  0.056162 *  0.750000 *    0.5130    1.000000
     19 O     c    0.375000 *  0.443839 *  0.056161 *    0.5130    1.000000
     20 O     c    0.028081 *  0.750000 *  0.443838 *    0.5130    1.000000
     21 Ba    c    0.250000 *  0.500000 *  0.500000 *    0.1690    1.000000
     22 Ba    s    0.572390 *  0.144780 *  0.144780 *    1.8310    1.000000
     23 Ba    s    0.677610 *  0.355219 *  0.355219 *    1.8310    1.000000
     24 Fe    s    0.822391 *  0.644781 *  0.644781 *    1.0290    1.000000
     25 Fe    s    0.927610 *  0.855219 *  0.855219 *    1.0290    1.000000
     26 Fe    s    0.072390 *  0.144780 *  0.144780 *    1.0290    1.000000
     27 Fe    s    0.177610 *  0.355219 *  0.355219 *    1.0290    1.000000
     28 Fe    s    0.322391 *  0.644781 *  0.644781 *    1.0290    1.000000
     29 Fe    s    0.427610 *  0.855219 *  0.855219 *    1.0290    1.000000
     30 O     s    0.778081 *  0.943838 *  0.250000 *   -2.5130    1.000000
     31 O     s    0.625000 *  0.556161 *  0.943839 *   -2.5130    1.000000
     32 O     s    0.971919 *  0.250000 *  0.556162 *   -2.5130    1.000000
     33 O     s    0.721919 *  0.056162 *  0.750000 *   -2.5130    1.000000
     34 O     s    0.875000 *  0.443839 *  0.056161 *   -2.5130    1.000000
     35 O     s    0.528081 *  0.750000 *  0.443838 *   -2.5130    1.000000
     36 O     s    0.278081 *  0.943838 *  0.250000 *   -2.5130    1.000000
     37 O     s    0.125000 *  0.556161 *  0.943839 *   -2.5130    1.000000
     38 O     s    0.471919 *  0.250000 *  0.556162 *   -2.5130    1.000000
     39 O     s    0.221919 *  0.056162 *  0.750000 *   -2.5130    1.000000
     40 O     s    0.375000 *  0.443839 *  0.056161 *   -2.5130    1.000000
     41 O     s    0.028081 *  0.750000 *  0.443838 *   -2.5130    1.000000
     42 Ba    s    0.250000 *  0.500000 *  0.500000 *    1.8310    1.000000

*  General input information                                                   *

  Species output for all configurations :

  Species    Type    Atomic    Atomic    Charge       Radii (Angs)     Library
                     Number     Mass       (e)     Cova   Ionic  VDW   Symbol
    Fe       Core       26      55.85     1.9710   1.340  0.000  2.000
    Fe       Shell      26      55.85     1.0290   1.340  0.000  2.000
    Ba       Core       56     137.33     0.1690   1.340  0.000  2.000
    Ba       Shell      56     137.33     1.8310   1.340  0.000  2.000
    O        Core        8      16.00     0.5130   0.730  0.000  1.360
    O        Shell       8      16.00    -2.5130   0.730  0.000  1.360

  Lattice summation method               =    Ewald
  Accuracy factor for lattice sums       =    8.000

  Time limit = Infinity

  General interatomic potentials :

Atom  Types   Potential         A         B         C         D     Cutoffs(Ang)
  1     2                                                            Min    Max
O    s Fe   s Buckingham    0.322E+04 0.264     0.00     0.00       0.000 10.000
O    s O    s Buckingham     25.4     0.694     32.3     0.00       0.000 12.000
O    s Ba   s Buckingham    0.482E+04 0.307     0.00     0.00       0.000 10.000
O    c O    s Spring (c-s)   20.5      0.00     0.00     0.00       0.000  0.600
Fe   c Fe   s Spring (c-s)   180.      0.00     0.00     0.00       0.000  0.600
Ba   c Ba   s Spring (c-s)   34.0      0.00     0.00     0.00       0.000  0.600

*  Output for configuration   1                                                *

  Components of energy :

  Interatomic potentials     =         190.86418224 eV
  Monopole - monopole (real) =        -285.83834705 eV
  Monopole - monopole (recip)=        -370.05087542 eV
  Monopole - monopole (total)=        -655.88922247 eV
  Total lattice energy       =        -465.02504023 eV
  Total lattice energy       =          -44867.8078 kJ/(mole unit cells)

  Number of variables =    129

  Maximum number of calculations  =          7000
  Maximum Hessian update interval =            10
  Maximum step size               =   1.000000000
  Maximum parameter tolerance     =   0.000010000
  Maximum function  tolerance     =   0.000010000
  Maximum gradient  tolerance     =   0.001000000
  Maximum gradient  component     =   0.010000000

  Symmetry not applied to optimisation

  Cell parameters to be optimised using strains

  Newton-Raphson optimiser to be used

  BFGS hessian update to be used

  Dumpfile to be written after every   10 cycles

  Start of bulk optimisation :

  ** Hessian calculated **
  ** Hessian calculated **
  ** Hessian calculated **
  ** Hessian calculated **
  ** Hessian calculated **
  ** Hessian calculated **
  ** Hessian calculated **
  ** Hessian calculated **
  ** Hessian calculated **
  ** Hessian calculated **
  ** Hessian calculated **
  ** Hessian calculated **
  ** Hessian calculated **
  ** Hessian calculated **
  ** Hessian calculated **
  ** Hessian calculated **
  ** Hessian calculated **
  ** Hessian calculated **
  ** Hessian calculated **
  ** Hessian calculated **
  ** Hessian calculated **
  ** Hessian calculated **
  ** Hessian calculated **
  ** Hessian calculated **
  ** Hessian calculated **
  ** Hessian calculated **
  ** Hessian calculated **
  ** Hessian calculated **
  ** Hessian calculated **
  ** Hessian calculated **
  ** Hessian calculated **
  ** Hessian calculated **
  ** Hessian calculated **
  ** Hessian calculated **
  ** Hessian calculated **
  ** Hessian calculated **
  ** Hessian calculated **
  ** Hessian calculated **
  ** Hessian calculated **
  ** Hessian calculated **
  ** Hessian calculated **
  ** Hessian calculated **
  ** Hessian calculated **
  ** Hessian calculated **
  ** Hessian calculated **
  ** Hessian calculated **
  ** Hessian calculated **
  ** Hessian calculated **
  ** Hessian calculated **
  ** Hessian calculated **
  ** Hessian calculated **
  ** Hessian calculated **
  ** Hessian calculated **

  **** Optimisation achieved ****

  Final energy =    -557.53367977 eV
  Final Gnorm  =       0.00035566

  Components of energy :

  Interatomic potentials     =         100.23124053 eV
  Monopole - monopole (real) =        -348.89588318 eV
  Monopole - monopole (recip)=        -308.86903712 eV
  Monopole - monopole (total)=        -657.76492030 eV
  Total lattice energy       =        -557.53367977 eV
  Total lattice energy       =          -53793.4774 kJ/(mole unit cells)

  Final fractional coordinates of atoms :

   No.  Atomic        x           y          z          Radius
        Label       (Frac)      (Frac)     (Frac)       (Angs)
     1  Ba    c     0.572390    0.144780    0.144780    0.000000
     2  Ba    c     0.645989    0.624996    0.185005    0.000000
     3  Fe    c     0.981193    0.674709    0.041652    0.000000
     4  Fe    c     0.959639    0.762248    0.625593    0.000000
     5  Fe    c     0.021370    0.093884    0.054369    0.000000
     6  Fe    c     0.379189    0.353866    0.791742    0.000000
     7  Fe    c     0.340299    0.745231    0.700225    0.000000
     8  Fe    c     0.709704    0.035036    0.407004    0.000000
     9  O     c     0.876642    0.853808    0.857544    0.000000
    10  O     c     0.829882    0.788794    0.301012    0.000000
    11  O     c     0.186839    0.386439    0.972903    0.000000
    12  O     c     0.837809    0.044933    0.385685    0.000000
    13  O     c     0.947528    0.459475    0.875148    0.000000
    14  O     c     0.503832    0.776300    0.527542    0.000000
    15  O     c     0.549088    0.010227    0.767876    0.000000
    16  O     c     0.358275    0.699767    0.494892    0.000000
    17  O     c     0.585025    0.361181    0.201148    0.000000
    18  O     c     0.130938    0.983292    0.825417    0.000000
    19  O     c     0.413402    0.358354    0.948054    0.000000
    20  O     c     0.120796    0.839930    0.301325    0.000000
    21  Ba    c     0.342557    0.846262    0.116292    0.000000
    22  Ba    s     0.572360    0.145221    0.144571    0.000000
    23  Ba    s     0.646253    0.624857    0.184702    0.000000
    24  Fe    s     0.982538    0.673946    0.041929    0.000000
    25  Fe    s     0.958829    0.762382    0.625352    0.000000
    26  Fe    s     0.018421    0.098064    0.056129    0.000000
    27  Fe    s     0.379652    0.349959    0.791874    0.000000
    28  Fe    s     0.339358    0.746230    0.700532    0.000000
    29  Fe    s     0.712793    0.027902    0.411500    0.000000
    30  O     s     0.891801    0.829005    0.858208    0.000000
    31  O     s     0.834631    0.801771    0.279310    0.000000
    32  O     s     0.183730    0.409370    0.964653    0.000000
    33  O     s     0.844937    0.036694    0.378828    0.000000
    34  O     s     0.949968    0.458548    0.872977    0.000000
    35  O     s     0.491587    0.777856    0.532475    0.000000
    36  O     s     0.547278    0.030326    0.753455    0.000000
    37  O     s     0.363237    0.676807    0.519736    0.000000
    38  O     s     0.592490    0.334643    0.221113    0.000000
    39  O     s     0.140840    0.968949    0.842288    0.000000
    40  O     s     0.409986    0.378745    0.920427    0.000000
    41  O     s     0.103644    0.853824    0.305857    0.000000
    42  Ba    s     0.342409    0.847176    0.115134    0.000000

  Final cell parameters and derivatives :

       a           15.911772 Angstrom     dE/de1(xx)     0.002543 eV/strain
       b            9.675667 Angstrom     dE/de2(yy)     0.000119 eV/strain
       c            8.823224 Angstrom     dE/de3(zz)     0.003166 eV/strain
       alpha       36.795651 Degrees      dE/de4(yz)     0.001195 eV/strain
       beta        38.559505 Degrees      dE/de5(xz)    -0.000731 eV/strain
       gamma       34.498024 Degrees      dE/de6(xy)    -0.001679 eV/strain

  Primitive cell volume =           429.988411 Angs**3

  Density of cell =      3.626657 g/cm**3

  Non-primitive cell volume =           429.988411 Angs**3

  Final internal derivatives :

   No.  Atomic          x             y             z           Radius
        Label          (eV)          (eV)          (eV)        (eV/Angs)
      1 Ba    c       0.000000      0.000000      0.000000      0.000000
      2 Ba    c      -0.000008      0.001480      0.001951      0.000000
      3 Fe    c       0.007098      0.004908      0.000217      0.000000
      4 Fe    c      -0.004555      0.001928     -0.001959      0.000000
      5 Fe    c      -0.012201     -0.002792      0.002397      0.000000
      6 Fe    c       0.011173      0.000241      0.007089      0.000000
      7 Fe    c       0.003741      0.000406     -0.001803      0.000000
      8 Fe    c       0.006167      0.000299      0.005630      0.000000
      9 O     c      -0.003932     -0.003216      0.000017      0.000000
     10 O     c       0.004127      0.003210      0.001412      0.000000
     11 O     c      -0.000729     -0.000247      0.001235      0.000000
     12 O     c       0.005388      0.003270     -0.000876      0.000000
     13 O     c       0.006501      0.003452      0.002575      0.000000
     14 O     c      -0.003465     -0.001029      0.000139      0.000000
     15 O     c      -0.003497     -0.001929     -0.000712      0.000000
     16 O     c       0.002098     -0.001116     -0.002054      0.000000
     17 O     c      -0.004750     -0.002126     -0.000896      0.000000
     18 O     c      -0.003096     -0.002205      0.001222      0.000000
     19 O     c      -0.001795     -0.001670     -0.000970      0.000000
     20 O     c       0.000367     -0.001224     -0.001281      0.000000
     21 Ba    c       0.001446     -0.001273      0.000280      0.000000
     22 Ba    s       0.013213      0.008909      0.008021      0.000000
     23 Ba    s       0.002430      0.001282      0.002020      0.000000
     24 Fe    s       0.003814      0.005708      0.001860      0.000000
     25 Fe    s       0.004237      0.004637      0.004176      0.000000
     26 Fe    s       0.014110      0.005152     -0.003478      0.000000
     27 Fe    s       0.003734      0.008586      0.000904      0.000000
     28 Fe    s      -0.007896     -0.005138     -0.007208      0.000000
     29 Fe    s      -0.006338      0.001156      0.001552      0.000000
     30 O     s      -0.006730     -0.001122      0.004040      0.000000
     31 O     s      -0.007148     -0.004024     -0.003880      0.000000
     32 O     s       0.003435     -0.000282     -0.000497      0.000000
     33 O     s       0.005092      0.000244     -0.000395      0.000000
     34 O     s      -0.000936     -0.001638     -0.001412      0.000000
     35 O     s      -0.002151     -0.001684      0.000773      0.000000
     36 O     s       0.001736      0.001057      0.000160      0.000000
     37 O     s       0.000010     -0.001130     -0.003438      0.000000
     38 O     s      -0.002624     -0.000080      0.002850      0.000000
     39 O     s      -0.005844     -0.001971      0.002969      0.000000
     40 O     s      -0.005652     -0.004325     -0.002568      0.000000
     41 O     s       0.002921     -0.001274     -0.000230      0.000000
     42 Ba    s       0.000598     -0.001269     -0.000633      0.000000

  Born effective charge tensors :

  Atom             x           y             z
   1 Ba    x       1.5599     -0.1005      0.0462
           y      -0.0498      1.6539      0.0573
           z       0.0414      0.0289      1.6521
   2 Ba    x       1.4783      0.1456      0.0035
           y       0.1947      1.7193     -0.3109
           z       0.0350     -0.3464      1.5271
   3 Fe    x       1.7016      0.0934     -0.1617
           y       0.0081      1.5446      0.1546
           z      -0.1749      0.1530      1.3682
   4 Fe    x       1.5197     -0.1077      0.5637
           y      -0.0456      0.9872     -0.3670
           z       0.3700     -0.2970      1.9941
   5 Fe    x       0.9551     -0.0322     -0.4566
           y      -0.0800      1.1284     -0.1079
           z      -0.4379     -0.1808      1.3111
   6 Fe    x       1.0812     -0.0336     -0.1849
           y       0.0759      1.2795     -0.0107
           z      -0.1027      0.0433      1.0107
   7 Fe    x       0.6368      0.0938      0.1024
           y       0.1747      1.1937      0.1713
           z       0.1322      0.1551      0.9353
   8 Fe    x       1.4713      0.2192     -0.1497
           y       0.0110      1.1789      0.4652
           z      -0.1335      0.5466      1.0407
   9 O     x      -1.0260     -0.0163     -0.0205
           y      -0.0270     -0.9218     -0.0598
           z       0.0317     -0.0761     -0.9981
  10 O     x      -1.0356     -0.0207      0.0456
           y      -0.0406     -1.1203     -0.1778
           z      -0.0359     -0.1696     -0.8869
  11 O     x      -1.1518     -0.0150      0.0478
           y      -0.0222     -1.0435      0.0846
           z       0.0930     -0.0243     -0.9283
  12 O     x      -1.2534      0.0345     -0.0888
           y       0.0797     -0.7961      0.0719
           z      -0.0762      0.1042     -1.2672
  13 O     x      -0.9297     -0.0509     -0.0383
           y      -0.0109     -1.0898      0.1831
           z       0.0006      0.2742     -1.0334
  14 O     x      -1.0356     -0.0009     -0.0832
           y       0.0004     -1.1678     -0.0175
           z      -0.1098     -0.0231     -1.3311
  15 O     x      -0.9776      0.0196      0.1293
           y       0.0689     -1.1219     -0.1768
           z       0.1323     -0.0087     -1.1662
  16 O     x      -0.7953     -0.1089      0.0899
           y      -0.0952     -1.0491      0.0473
           z       0.0373     -0.0093     -0.7538
  17 O     x      -1.2116     -0.1488      0.0421
           y      -0.1610     -1.0811     -0.1412
           z       0.0364     -0.2045     -1.1749
  18 O     x      -0.9900     -0.0410      0.0600
           y      -0.0593     -0.8822      0.0567
           z       0.0425      0.0317     -0.9072
  19 O     x      -0.7666     -0.0525      0.1086
           y      -0.0653     -1.1757      0.0644
           z       0.1783      0.0537     -0.8426
  20 O     x      -0.8661      0.0809     -0.0386
           y       0.0146     -0.9101      0.0731
           z      -0.0469      0.0429     -1.2203
  21 Ba    x       1.6354      0.0421     -0.0168
           y       0.0289      1.6738     -0.0597
           z      -0.0130     -0.0939      1.6706

  Elastic Constant Matrix: (Units=GPa)

  Indices      1         2         3         4         5         6
       1    112.8787   38.9328   27.8762    4.7277   -6.2295    1.4384
       2     38.9328  116.4790   56.0874   16.4304   -9.8509    0.5680
       3     27.8762   56.0874   78.2368    3.0857   -8.8648    3.6141
       4      4.7277   16.4304    3.0857   32.8552    0.1193   -8.9843
       5     -6.2295   -9.8509   -8.8648    0.1193   30.9819    3.6405
       6      1.4384    0.5680    3.6141   -8.9843    3.6405   22.0745

  Elastic Compliance Matrix: (Units=1/GPa)

  Indices      1         2         3         4         5         6
       1    0.010202 -0.002469 -0.001736 -0.000222  0.000834 -0.000545
       2   -0.002469  0.015024 -0.009334 -0.006768  0.001842 -0.001756
       3   -0.001736 -0.009334  0.020437  0.002298  0.002818 -0.002522
       4   -0.000222 -0.006768  0.002298  0.037987 -0.003549  0.015858
       5    0.000834  0.001842  0.002818 -0.003549  0.034760 -0.007740
       6   -0.000545 -0.001756 -0.002522  0.015858 -0.007740  0.053525

 Mechanical properties :

  Convention :                    Reuss         Voigt         Hill
  Bulk  Modulus (GPa)     =      53.81063      61.48748      57.64905
  Shear Modulus (GPa)     =      24.36534      29.49553      26.93044
  Velocity S-wave (km/s)  =       8.19659       9.01830       8.61725
  Velocity P-wave (km/s)  =      15.42576      16.67282      16.06140
  Compressibility (1/GPa) =    0.01858369
  Stress axis :                     x             y             z
  Youngs Moduli (GPa)     =      98.02159      66.55862      48.93055
  Poissons Ratio (x)      =                     0.16436       0.08496
  Poissons Ratio (y)      =       0.24205                     0.45673
  Poissons Ratio (z)      =       0.17019       0.62127

  Piezoelectric Strain Matrix: (Units=C/m**2)

  Indices      1         2         3         4         5         6
       x    -7.37158  -1.40222  -5.97224   0.00084  -0.02915   3.11896
       y    -3.33830  -4.48276  -1.33165   1.33398   1.90549   5.01621
       z     4.67837   4.62753   4.66758   0.49420   0.66048  -0.57825

  Piezoelectric Stress Matrix: (Units=10**-11 C/N)

  Indices      1         2         3         4         5         6
       x    -6.30958   4.73453 -10.41140   4.69971  -5.07203  18.87235
       y    -2.21153  -6.10043   1.62095  15.14810   0.78797  28.79499
       z     2.89531   1.32922   4.85304  -1.43725   5.12616  -5.06730

  Static dielectric constant tensor :

              x         y         z
       x     4.68747   0.78838  -0.47049
       y     0.78838   4.36021  -0.46184
       z    -0.47049  -0.46184   4.41768

  High frequency dielectric constant tensor :

              x         y         z
       x     2.12830   0.02217  -0.00803
       y     0.02217   2.14443  -0.01046
       z    -0.00803  -0.01046   2.15639

  Static refractive indices :

    1 =    1.92618      2 =    2.02048      3 =    2.38177

  High frequency refractive indices :

    1 =    1.45353      2 =    1.46454      3 =    1.47359

  Time to end of optimisation =      33.8181 seconds

  Timing analysis for Gulp :

  Task / Subroutine                                          Time (Seconds)
  Calculation of reciprocal space energy and derivatives          0.8520
  Calculation of real space energy and derivatives               32.6741
  Global summation overhead                                       0.0040

  Dump file written as Ba2211_res

  Job Finished at 16:50.38 13th July       2009