  Job Started  at 08:59.26 16th September  2009

  Number of CPUs =     1

  Total number of configurations input =   1

*  Input for Configuration =   1                                               *

  Formula = Fe4O6

  Number of irreducible atoms/shells =      20

  Total number atoms/shells =      20

  Dimensionality = 3               :  Bulk

  Cartesian lattice vectors (Angstroms) :

        5.470500    0.000000    0.000000
        3.116605    4.495903    0.000000
        3.116605    1.631744    4.189339

  Cell parameters (Angstroms/Degrees):

  a =       5.4705    alpha =  55.2699
  b =       5.4705    beta  =  55.2699
  c =       5.4705    gamma =  55.2699

  Initial cell volume =         103.036108 Angs**3

  Temperature of configuration =  0.000     K

  Pressure of configuration =         0.000 GPa

  Fractional coordinates of asymmetric unit :

   No.  Atomic       x           y          z         Charge      Occupancy
        Label      (Frac)      (Frac)     (Frac)        (e)         (Frac)
      1 Fe    c    0.356862    0.356862    0.356862      1.9710    1.000000
      2 Fe    c    0.856970 *  0.856970 *  0.856970 *    1.9710    1.000000
      3 Fe    c    0.143074 *  0.143074 *  0.143074 *    1.9710    1.000000
      4 Fe    c    0.643181 *  0.643181 *  0.643181 *    1.9710    1.000000
      5 O1    c    0.555038 *  0.944912 *  0.250027 *    0.5130    1.000000
      6 O1    c    0.250027 *  0.555038 *  0.944912 *    0.5130    1.000000
      7 O1    c    0.944912 *  0.250027 *  0.555038 *    0.5130    1.000000
      8 O1    c    0.444907 *  0.055035 *  0.749993 *    0.5130    1.000000
      9 O1    c    0.749993 *  0.444907 *  0.055035 *    0.5130    1.000000
     10 O1    c    0.055035 *  0.749993 *  0.444907 *    0.5130    1.000000
     11 Fe    s    0.356862 *  0.356862 *  0.356862 *    1.0290    1.000000
     12 Fe    s    0.856970 *  0.856970 *  0.856970 *    1.0290    1.000000
     13 Fe    s    0.143074 *  0.143074 *  0.143074 *    1.0290    1.000000
     14 Fe    s    0.643181 *  0.643181 *  0.643181 *    1.0290    1.000000
     15 O1    s    0.555038 *  0.944912 *  0.250027 *   -2.5130    1.000000
     16 O1    s    0.250027 *  0.555038 *  0.944912 *   -2.5130    1.000000
     17 O1    s    0.944912 *  0.250027 *  0.555038 *   -2.5130    1.000000
     18 O1    s    0.444907 *  0.055035 *  0.749993 *   -2.5130    1.000000
     19 O1    s    0.749993 *  0.444907 *  0.055035 *   -2.5130    1.000000
     20 O1    s    0.055035 *  0.749993 *  0.444907 *   -2.5130    1.000000

*  General input information                                                   *

  Species output for all configurations :

  Species    Type    Atomic    Atomic    Charge       Radii (Angs)     Library
                     Number     Mass       (e)     Cova   Ionic  VDW   Symbol
    Fe       Core       26      55.85     1.9710   1.340  0.000  2.000
    Fe       Shell      26      55.85     1.0290   1.340  0.000  2.000
    O1       Core        8      16.00     0.5130   0.730  0.000  1.360
    O1       Shell       8      16.00    -2.5130   0.730  0.000  1.360

  Lattice summation method               =    Ewald
  Accuracy factor for lattice sums       =    8.000

  Time limit = Infinity

  General interatomic potentials :

Atom  Types   Potential         A         B         C         D     Cutoffs(Ang)
  1     2                                                            Min    Max
O1   c O1   s Spring (c-s)   20.5      0.00     0.00     0.00       0.000  0.600
Fe   c Fe   s Spring (c-s)   180.      0.00     0.00     0.00       0.000  0.600
O    s Fe   s Buckingham    0.322E+04 0.264     0.00     0.00       0.000 10.000
O    s O1   s Buckingham     25.4     0.694     32.3     0.00       0.000 12.000

*  Output for configuration   1                                                *

  Components of energy :

  Interatomic potentials     =          50.40537873 eV
  Monopole - monopole (real) =        -119.41916722 eV
  Monopole - monopole (recip)=        -235.40624778 eV
  Monopole - monopole (total)=        -354.82541500 eV
  Total lattice energy       =        -304.42003627 eV
  Total lattice energy       =          -29371.8800 kJ/(mole unit cells)

  Number of variables =     63

  Maximum number of calculations  =          1000
  Maximum Hessian update interval =            10
  Maximum step size               =   1.000000000
  Maximum parameter tolerance     =   0.000010000
  Maximum function  tolerance     =   0.000010000
  Maximum gradient  tolerance     =   0.001000000
  Maximum gradient  component     =   0.010000000

  Symmetry not applied to optimisation

  Cell parameters to be optimised using strains

  Newton-Raphson optimiser to be used

  BFGS hessian update to be used

  Dumpfile to be written after every   10 cycles

  Start of bulk optimisation :

  ** Hessian calculated **

  **** Optimisation achieved ****

  Final energy =    -304.68910861 eV
  Final Gnorm  =       0.00034420

  Components of energy :

  Interatomic potentials     =          53.67186228 eV
  Monopole - monopole (real) =        -123.34837585 eV
  Monopole - monopole (recip)=        -235.01259504 eV
  Monopole - monopole (total)=        -358.36097089 eV
  Total lattice energy       =        -304.68910861 eV
  Total lattice energy       =          -29397.8414 kJ/(mole unit cells)

  Final fractional coordinates of atoms :

   No.  Atomic        x           y          z          Radius
        Label       (Frac)      (Frac)     (Frac)       (Angs)
     1  Fe    c     0.356862    0.356862    0.356862    0.000000
     2  Fe    c     0.856861    0.856861    0.856861    0.000000
     3  Fe    c     0.147108    0.147108    0.147108    0.000000
     4  Fe    c     0.647106    0.647106    0.647106    0.000000
     5  O1    c     0.547124    0.956847    0.251984    0.000000
     6  O1    c     0.251984    0.547124    0.956847    0.000000
     7  O1    c     0.956847    0.251984    0.547124    0.000000
     8  O1    c     0.456847    0.047124    0.751985    0.000000
     9  O1    c     0.751985    0.456847    0.047124    0.000000
    10  O1    c     0.047124    0.751985    0.456847    0.000000
    11  Fe    s     0.357243    0.357243    0.357243    0.000000
    12  Fe    s     0.857242    0.857242    0.857242    0.000000
    13  Fe    s     0.146727    0.146727    0.146727    0.000000
    14  Fe    s     0.646726    0.646726    0.646726    0.000000
    15  O1    s     0.546767    0.957203    0.251985    0.000000
    16  O1    s     0.251985    0.546767    0.957203    0.000000
    17  O1    s     0.957203    0.251985    0.546767    0.000000
    18  O1    s     0.457204    0.046767    0.751985    0.000000
    19  O1    s     0.751985    0.457204    0.046767    0.000000
    20  O1    s     0.046767    0.751985    0.457204    0.000000

  Final cell parameters and derivatives :

       a            5.378431 Angstrom     dE/de1(xx)    -0.004901 eV/strain
       b            5.378431 Angstrom     dE/de2(yy)    -0.001887 eV/strain
       c            5.378431 Angstrom     dE/de3(zz)    -0.001281 eV/strain
       alpha       55.964422 Degrees      dE/de4(yz)    -0.000778 eV/strain
       beta        55.964422 Degrees      dE/de5(xz)    -0.001486 eV/strain
       gamma       55.964422 Degrees      dE/de6(xy)    -0.002174 eV/strain

  Primitive cell volume =            99.727752 Angs**3

  Density of cell =      5.318325 g/cm**3

  Non-primitive cell volume =            99.727752 Angs**3

  Final internal derivatives :

   No.  Atomic          x             y             z           Radius
        Label          (eV)          (eV)          (eV)        (eV/Angs)
      1 Fe    c       0.000000      0.000000      0.000000      0.000000
      2 Fe    c       0.005810      0.005810      0.005810      0.000000
      3 Fe    c      -0.005384     -0.005384     -0.005384      0.000000
      4 Fe    c      -0.005162     -0.005162     -0.005162      0.000000
      5 O1    c      -0.001702      0.001700      0.000044      0.000000
      6 O1    c       0.000044     -0.001702      0.001700      0.000000
      7 O1    c       0.001700      0.000044     -0.001702      0.000000
      8 O1    c       0.001818     -0.001586      0.000092      0.000000
      9 O1    c       0.000092      0.001818     -0.001586      0.000000
     10 O1    c      -0.001586      0.000092      0.001818      0.000000
     11 Fe    s      -0.003204     -0.003204     -0.003204      0.000000
     12 Fe    s      -0.004169     -0.004169     -0.004169      0.000000
     13 Fe    s       0.002959      0.002959      0.002959      0.000000
     14 Fe    s       0.002027      0.002027      0.002027      0.000000
     15 O1    s      -0.000692      0.000930      0.000022      0.000000
     16 O1    s       0.000022     -0.000692      0.000930      0.000000
     17 O1    s       0.000930      0.000022     -0.000692      0.000000
     18 O1    s       0.001095     -0.000538      0.000363      0.000000
     19 O1    s       0.000363      0.001095     -0.000538      0.000000
     20 O1    s      -0.000538      0.000363      0.001095      0.000000

  Born effective charge tensors :

  Atom             x           y             z
   1 Fe    x       2.5983     -0.0370      0.1638
           y       0.1392      2.5275     -0.2278
           z      -0.0939      0.2644      2.5132
   2 Fe    x       2.5983      0.1392     -0.0939
           y      -0.0370      2.5274      0.2644
           z       0.1638     -0.2278      2.5132
   3 Fe    x       2.5983      0.1392     -0.0939
           y      -0.0370      2.5274      0.2644
           z       0.1638     -0.2278      2.5132
   4 Fe    x       2.5984     -0.0370      0.1638
           y       0.1392      2.5275     -0.2278
           z      -0.0939      0.2644      2.5132
   5 O1    x      -1.6270      0.0818     -0.2654
           y       0.0818     -1.7404     -0.1390
           z      -0.2305     -0.1207     -1.7252
   6 O1    x      -1.9425      0.0336      0.0230
           y       0.0011     -1.4995      0.1940
           z       0.0007      0.1940     -1.6506
   7 O1    x      -1.6270     -0.2176      0.1726
           y      -0.1851     -1.8150     -0.0916
           z       0.1599     -0.1099     -1.6506
   8 O1    x      -1.6270      0.0818     -0.2654
           y       0.0818     -1.7405     -0.1390
           z      -0.2305     -0.1207     -1.7252
   9 O1    x      -1.9425      0.0336      0.0230
           y       0.0011     -1.4995      0.1940
           z       0.0007      0.1940     -1.6506
  10 O1    x      -1.6271     -0.2176      0.1726
           y      -0.1851     -1.8150     -0.0916
           z       0.1599     -0.1099     -1.6506

  Elastic Constant Matrix: (Units=GPa)

  Indices      1         2         3         4         5         6
       1    501.9021  216.1509  190.1230   33.4090   -4.1221   -6.0317
       2    216.1509  536.8136  221.0408  -45.0987  -18.2017  -19.1515
       3    190.1230  221.0408  576.0814   -5.3063  -10.1382  -22.2983
       4     33.4090  -45.0987   -5.3063  124.3759   -0.0583   -2.9966
       5     -4.1221  -18.2017  -10.1382   -0.0583  124.2921   41.3698
       6     -6.0317  -19.1515  -22.2983   -2.9966   41.3698  156.5215

  Elastic Compliance Matrix: (Units=1/GPa)

  Indices      1         2         3         4         5         6
       1    0.002676 -0.000956 -0.000531 -0.001090 -0.000064 -0.000093
       2   -0.000956  0.002640 -0.000676  0.001189  0.000252  0.000146
       3   -0.000531 -0.000676  0.002179 -0.000005 -0.000009  0.000209
       4   -0.001090  0.001189 -0.000005  0.008770  0.000057  0.000256
       5   -0.000064  0.000252 -0.000009  0.000057  0.008849 -0.002311
       6   -0.000093  0.000146  0.000209  0.000256 -0.002311  0.007049

 Mechanical properties :

  Convention :                    Reuss         Voigt         Hill
  Bulk  Modulus (GPa)     =     315.69625     318.82517     317.26071
  Shear Modulus (GPa)     =     133.17227     146.87006     140.02116
  Velocity S-wave (km/s)  =      15.82412      16.61802      16.22592
  Velocity P-wave (km/s)  =      30.45441      31.10780      30.78284
  Compressibility (1/GPa) =    0.00316760
  Stress axis :                     x             y             z
  Youngs Moduli (GPa)     =     373.64895     378.79997     459.00567
  Poissons Ratio (x)      =                     0.36214       0.24384
  Poissons Ratio (y)      =       0.35721                     0.31047
  Poissons Ratio (z)      =       0.19849       0.25622

  Piezoelectric Strain Matrix: (Units=C/m**2)

  Indices      1         2         3         4         5         6
       x    -0.00202  -0.00116  -0.00155   0.00051   0.00020   0.00030
       y    -0.00001  -0.00166  -0.00082  -0.00051   0.00051  -0.00058
       z    -0.00001  -0.00071  -0.00098  -0.00051  -0.00097   0.00051

  Piezoelectric Stress Matrix: (Units=10**-11 C/N)

  Indices      1         2         3         4         5         6
       x    -0.00041   0.00006  -0.00015   0.00054   0.00010   0.00015
       y     0.00026  -0.00044  -0.00008  -0.00065   0.00054  -0.00058
       z     0.00018  -0.00020  -0.00015  -0.00053  -0.00100   0.00054

  Static dielectric constant tensor :

              x         y         z
       x    12.46662   0.93290   0.63780
       y     0.93290  11.17323   0.33393
       z     0.63780   0.33393  10.91309

  High frequency dielectric constant tensor :

              x         y         z
       x     4.79240   0.07336   0.05015
       y     0.07336   4.69070   0.02626
       z     0.05015   0.02626   4.67024

  Static refractive indices :

    1 =    3.26876      2 =    3.26876      3 =    3.63089

  High frequency refractive indices :

    1 =    2.15692      2 =    2.15692      3 =    2.20199

  Time to end of optimisation =       0.1120 seconds

  Timing analysis for Gulp :

  Task / Subroutine                                          Time (Seconds)
  Calculation of real space energy and derivatives                0.1040

  Dump file written as hematite_res.gin
  XTL file written as hematite.xtl

  Job Finished at 08:59.26 16th September  2009