  Job Started  at 16:25.28  1st November   2010

  Number of CPUs =     1

  Total number of configurations input =   1

*  Input for Configuration =   1                                               *

  Formula = MgO

  Number of irreducible atoms/shells =       4

  Total number atoms/shells =       4

  Dimensionality = 3               :  Bulk

  Symmetry :

  Crystal family                   :  Cubic
  Crystal class  (Groth - 1921)    :  Cubic Hexakisoctahedral

  Space group (centrosymmetric)    :  F M 3 M

  Patterson group                  :  F m -3 m

  Cartesian lattice vectors (Angstroms) :

        0.000000    2.108500    2.108500
        2.108500    0.000000    2.108500
        2.108500    2.108500    0.000000

  Primitive cell parameters :            Full cell parameters :

  a =   2.9819    alpha =  60.0000       a =   4.2170    alpha =  90.0000
  b =   2.9819    beta  =  60.0000       b =   4.2170    beta  =  90.0000
  c =   2.9819    gamma =  60.0000       c =   4.2170    gamma =  90.0000

  Initial volumes (Angstroms**3):

  Primitive cell =          18.747822    Full cell =          74.991286

  Temperature of configuration =  0.000     K

  Pressure of configuration =         0.000 GPa

  Fractional coordinates of asymmetric unit :

   No.  Atomic       x           y          z         Charge      Occupancy
        Label      (Frac)      (Frac)     (Frac)        (e)         (Frac)
      1 Mg2   c    0.000000    0.000000    0.000000      1.5800    1.000000
      2 O2    c    0.000000    0.000000    0.500000      0.5130    1.000000
      3 Mg2   s    0.000000    0.000000    0.000000      0.4200    1.000000
      4 O2    s    0.000000    0.000000    0.500000     -2.5130    1.000000

  Constraints :

  Constraint no.      Unconstrained     Constrained    Coefficient    Offset
                         Variable         Variable
           1              Strain 1        Strain 2       1.00000      0.0000
           2              Strain 1        Strain 3       1.00000      0.0000

*  General input information                                                   *

  Species output for all configurations :

  Species    Type    Atomic    Atomic    Charge       Radii (Angs)     Library
                     Number     Mass       (e)     Cova   Ionic  VDW   Symbol
    Mg       Core       12      24.31     1.5800   1.100  0.000  1.640
    Mg       Shell      12       0.00     0.4200   1.100  0.000  1.640
    O        Core        8      16.00     0.5130   0.730  0.000  1.360
    O        Shell       8       0.00    -2.5130   0.730  0.000  1.360

  Lattice summation method               =    Ewald
  Accuracy factor for lattice sums       =    8.000

  Time limit = Infinity

  Maximum range for interatomic potentials =    100000.000000 Angstroms

  General interatomic potentials :

Atom  Types   Potential         A         B         C         D     Cutoffs(Ang)
  1     2                                                            Min    Max
O    s O    s Buckingham     25.4     0.694     32.3     0.00       0.000 12.000
O    s Mg   s Buckingham    0.246E+04 0.261     0.00     0.00       0.000 10.000
O    c O    s Spring (c-s)   20.5      0.00     0.00     0.00       0.000  0.600
Mg   c Mg   s Spring (c-s)   350.      0.00     0.00     0.00       0.000  0.600

*  Output for configuration   1                                                *

  Components of energy :

  Interatomic potentials     =           6.74467326 eV
  Monopole - monopole (real) =          -3.83129462 eV
  Monopole - monopole (recip)=         -43.90787185 eV
  Monopole - monopole (total)=         -47.73916647 eV
  Total lattice energy :
    Primitive unit cell      =         -40.99449321 eV
    Non-primitive unit cell  =        -163.97797283 eV
  Total lattice energy (in kJmol-1):
    Primitive unit cell      =           -3955.3419 kJ/(mole unit cells)
    Non-primitive unit cell  =          -15821.3677 kJ/(mole unit cells)

  Number of variables =      1

  Maximum number of calculations  =          1000
  Maximum Hessian update interval =            10
  Maximum step size               =   1.000000000
  Maximum parameter tolerance     =   0.000010000
  Maximum function  tolerance     =   0.000010000
  Maximum gradient  tolerance     =   0.001000000
  Maximum gradient  component     =   0.010000000

  Symmetry constrained optimisation

  Symmetry used for second derivatives

  Cell parameters to be optimised using strains

  Newton-Raphson optimiser to be used

  BFGS hessian update to be used

  Start of bulk optimisation :

  ** Hessian calculated **

  **** Optimisation achieved ****

  Final energy =     -40.99536019 eV
  Final Gnorm  =       0.00000978

  Components of energy :

  Interatomic potentials     =           6.86813761 eV
  Monopole - monopole (real) =          -3.84127279 eV
  Monopole - monopole (recip)=         -44.02222500 eV
  Monopole - monopole (total)=         -47.86349779 eV
  Total lattice energy :
    Primitive unit cell      =         -40.99536019 eV
    Non-primitive unit cell  =        -163.98144074 eV
  Total lattice energy (in kJmol-1):
    Primitive unit cell      =           -3955.4256 kJ/(mole unit cells)
    Non-primitive unit cell  =          -15821.7023 kJ/(mole unit cells)

  Final asymmetric unit coordinates :

   No.  Atomic        x           y           z         Radius
        Label       (Frac)      (Frac)      (Frac)       (Angs)
     1  Mg2   c     0.000000    0.000000    0.000000    0.000000
     2  O2    c     0.000000    0.000000    0.500000    0.000000
     3  Mg2   s     0.000000    0.000000    0.000000    0.000000
     4  O2    s     0.000000    0.000000    0.500000    0.000000

  Final Cartesian lattice vectors (Angstroms) :

        0.000000    2.103023    2.103023
        2.103023    0.000000    2.103023
        2.103023    2.103023    0.000000

  Final cell parameters and derivatives :

       a            2.974124 Angstrom     dE/de1(xx)     0.000010 eV/strain
       b            2.974124 Angstrom     dE/de2(yy)     0.000000 eV/strain
       c            2.974124 Angstrom     dE/de3(zz)     0.000000 eV/strain
       alpha       60.000000 Degrees      dE/de4(yz)     0.000000 eV/strain
       beta        60.000000 Degrees      dE/de5(xz)     0.000000 eV/strain
       gamma       60.000000 Degrees      dE/de6(xy)     0.000000 eV/strain

  Primitive cell volume =            18.602101 Angs**3

  Density of cell =      3.598378 g/cm**3

  Non-primitive lattice parameters :

  a    =     4.206046  b   =     4.206046  c    =     4.206046
  alpha=    90.000000  beta=    90.000000  gamma=    90.000000

  Non-primitive cell volume =            74.408406 Angs**3

  Final internal derivatives :

   No.  Atomic          x             y             z           Radius
        Label          (eV)          (eV)          (eV)        (eV/Angs)
      1 Mg2   c       0.000000      0.000000      0.000000      0.000000
      2 O2    c       0.000000      0.000000      0.000000      0.000000
      3 Mg2   s       0.000000      0.000000      0.000000      0.000000
      4 O2    s       0.000000      0.000000      0.000000      0.000000
  Maximum abs         0.000000      0.000000      0.000000      0.000000

  Born effective charge tensors :

  Atom             x           y             z
   1 Mg2   x       1.9228      0.0000     -0.0000
           y       0.0000      1.9228     -0.0000
           z      -0.0000     -0.0000      1.9228
   2 O2    x      -1.9228     -0.0000      0.0000
           y      -0.0000     -1.9228      0.0000
           z       0.0000      0.0000     -1.9228

  Elastic Constant Matrix: (Units=GPa)

  Indices      1         2         3         4         5         6
       1    334.8161  202.5489  202.5489   -0.0000    0.0000   -0.0000
       2    202.5489  334.8161  202.5489   -0.0000    0.0000   -0.0000
       3    202.5489  202.5489  334.8161   -0.0000    0.0000   -0.0000
       4     -0.0000   -0.0000   -0.0000  202.5489   -0.0000    0.0000
       5      0.0000    0.0000    0.0000   -0.0000  202.5489   -0.0000
       6     -0.0000   -0.0000   -0.0000    0.0000   -0.0000  202.5489

  Elastic Compliance Matrix: (Units=1/GPa)

  Indices      1         2         3         4         5         6
       1    0.005491 -0.002070 -0.002070 -0.000000  0.000000  0.000000
       2   -0.002070  0.005491 -0.002070  0.000000 -0.000000  0.000000
       3   -0.002070 -0.002070  0.005491  0.000000 -0.000000 -0.000000
       4   -0.000000  0.000000  0.000000  0.004937  0.000000 -0.000000
       5    0.000000 -0.000000 -0.000000  0.000000  0.004937  0.000000
       6    0.000000  0.000000 -0.000000 -0.000000  0.000000  0.004937

 Mechanical properties :

  Convention :                    Reuss         Voigt         Hill
  Bulk  Modulus (GPa)     =     246.63796     246.63796     246.63796
  Shear Modulus (GPa)     =     110.98030     147.98279     129.48154
  Velocity S-wave (km/s)  =      17.56182      20.27927      18.96927
  Velocity P-wave (km/s)  =      33.11552      35.12472      34.13490
  Compressibility (1/GPa) =    0.00405453
  Stress axis :                     x             y             z
  Youngs Moduli (GPa)     =     182.12270     182.12270     182.12270
  Poissons Ratio (x)      =                     0.37693       0.37693
  Poissons Ratio (y)      =       0.37693                     0.37693
  Poissons Ratio (z)      =       0.37693       0.37693

  Piezoelectric Strain Matrix: (Units=C/m**2)

  Indices      1         2         3         4         5         6
       x     0.00000   0.00000   0.00000  -0.00000   0.00000   0.00000
       y     0.00000  -0.00000   0.00000   0.00000  -0.00000   0.00000
       z     0.00000   0.00000  -0.00000   0.00000   0.00000  -0.00000

  Piezoelectric Stress Matrix: (Units=10**-11 C/N)

  Indices      1         2         3         4         5         6
       x     0.00000  -0.00000  -0.00000  -0.00000   0.00000   0.00000
       y     0.00000  -0.00000   0.00000   0.00000  -0.00000   0.00000
       z     0.00000   0.00000  -0.00000   0.00000   0.00000  -0.00000

  Static dielectric constant tensor :

              x         y         z
       x    14.34811   0.00000  -0.00000
       y     0.00000  14.34811  -0.00000
       z    -0.00000  -0.00000  14.34811

  High frequency dielectric constant tensor :

              x         y         z
       x     4.61891  -0.00000  -0.00000
       y    -0.00000   4.61891  -0.00000
       z    -0.00000  -0.00000   4.61891

  Static refractive indices :

    1 =    3.78789      2 =    3.78789      3 =    3.78789

  High frequency refractive indices :

    1 =    2.14916      2 =    2.14916      3 =    2.14916

  Time to end of optimisation =       0.0360 seconds

  Timing analysis for GULP :

  Task / Subroutine                                          Time (Seconds)
  Calculation of real space energy and derivatives                0.0040
  Calculation of real space energy using symmetry                 0.0200
  Symmetry generation of equivalent positions                     0.0040

  Job Finished at 16:25.28  1st November   2010