 vasp.5.2.8 07Jul10 complex
 executed on             LinuxIFC date 2010.11.26  13:09:19

 INCAR:
 POTCAR:   PAW H 06May1998
 POTCAR:   PAW Al 17Apr2000
 POTCAR:   PAW H 06May1998
   VRHFIN =H: ultrasoft test

   TITEL  = PAW H 06May1998
   POMASS =    1.000; ZVAL   =    1.000    mass and valenz
   ENMAX  =  250.000; ENMIN  =  200.000 eV
   QCUT   =   -5.742; QGAM   =   11.483    optimization parameters

   Description
     l     E      TYP  RCUT    TYP  RCUT
     0   .000     23  1.100
     0   .500     23  1.100
     1  -.300     23  1.100

 POTCAR:   PAW Al 17Apr2000
   VRHFIN =Al: s2p1

   TITEL  = PAW Al 17Apr2000
   POMASS =   26.982; ZVAL   =    3.000    mass and valenz
   ENMAX  =  240.957; ENMIN  =  180.718 eV
   QCUT   =   -4.208; QGAM   =    8.417    optimization parameters

   Description
     l     E      TYP  RCUT    TYP  RCUT
     0   .000     23  1.900
     0   .000     23  1.900
     1   .000     23  1.900
     1  1.000     23  1.900
     2   .000      7  1.900

 Optimization of the real space projectors (new method)

 maximal supplied QI-value         = 34.20
 optimisation between [QCUT,QGAM] = [ 16.08, 32.15] = [ 72.37,289.48] Ry
 Optimized for a Real-space Cutoff    0.90 Angstroem

   l    n(q)    QCUT    max X(q) W(low)/X(q) W(high)/X(q)  e(spline)
   0      9    16.076     4.546    0.14E-04    0.93E-05    0.18E-07
   0      9    16.076    17.114    0.52E-04    0.15E-03    0.10E-06
   1      8    16.076     4.672    0.15E-03    0.16E-03    0.15E-06
 Optimization of the real space projectors (new method)

 maximal supplied QI-value         = 19.84
 optimisation between [QCUT,QGAM] = [ 16.07, 32.34] = [ 72.34,292.92] Ry
 Optimized for a Real-space Cutoff    1.04 Angstroem

   l    n(q)    QCUT    max X(q) W(low)/X(q) W(high)/X(q)  e(spline)
   0     10    16.072    12.940    0.13E-04    0.74E-05    0.14E-07
   0     10    16.072   138.101    0.40E-04    0.88E-04    0.26E-06
   1     10    16.072     9.250    0.23E-04    0.14E-04    0.21E-07
   1     10    16.072    50.313    0.14E-03    0.14E-03    0.11E-06
 PAW H 06May1998                        :
 PAW Al 17Apr2000                       :

 POSCAR: 6H 2AL
  positions in direct lattice
  velocities in cartesian coordinates
 exchange correlation table for  LEXCH =        2
   RHO(1)=    0.500       N(1)  =     2000
   RHO(2)=  100.500       N(2)  =     4000

 ion  position               nearest neighbor table
   1  0.752  0.748  0.250-   8 1.96   7 1.96
   2  0.250  0.752  0.748-   8 1.96   7 1.96
   3  0.748  0.250  0.752-   8 1.96   7 1.96
   4  0.248  0.252  0.750-   7 1.96   8 1.96
   5  0.750  0.248  0.252-   8 1.96   7 1.96
   6  0.252  0.750  0.248-   8 1.96   7 1.96
   7  0.000  0.000  0.000-   4 1.96   5 1.96   6 1.96   2 1.96   3 1.96   1 1.96
   8  0.500  0.500  0.500-   6 1.96   5 1.96   2 1.96   4 1.96   1 1.96   3 1.96

  LATTYP: Found a trigonal (rhomboedric) cell.
 ALAT       =     5.5336638981
 COS(alpha) =     0.4972728444

  Lattice vectors:

 A1 = (   4.7097968736,  -0.1225028103,   2.9024524933)
 A2 = (   1.5600620396,   4.4456061370,   2.9024521779)
 A3 = (  -0.1776678556,  -0.1225030332,   5.5294543110)
 Subroutine PRICEL returns:
 Original cell was already a primitive cell.

Analysis of symmetry for initial positions (statically):

 Routine SETGRP: Setting up the symmetry group for a
 trigonal (rhombohedral) supercell.

 Subroutine GETGRP returns: Found 12 space group operations
 (whereof  6 operations were pure point group operations)
 out of a pool of 12 trial point group operations.

The static configuration has the point symmetry S_6 .
 The point group associated with its full space group is D_3d.

Analysis of symmetry for dynamics (positions and initial velocities):

 Subroutine DYNSYM returns: Found 12 space group operations
 (whereof  6 operations were pure point group operations)
 out of a pool of 12 trial space group operations
 (whereof  6 operations were pure point group operations)
 and found also     1 'primitive' translations

The dynamic configuration has the point symmetry S_6 .
 The point group associated with its full space group is D_3d.

 KPOINTS: 1x1x1

Automatic generation of k-mesh.

 Subroutine IBZKPT returns following result:

 Found      1 irreducible k-points:

 Following reciprocal coordinates:
            Coordinates               Weight
  0.000000  0.000000  0.000000      1.000000

 Following cartesian coordinates:
            Coordinates               Weight
  0.000000  0.000000  0.000000      1.000000

 Subroutine IBZKPT_HF returns following result:

 Found      1 k-points in 1st BZ
 the following      1 k-points will be used (e.g. in the exchange kernel)
 Following reciprocal coordinates:   # in IRBZ
  0.000000  0.000000  0.000000       1

 I would recommend the setting:
   dimension x,y,z NGX =    57 NGY =   57 NGZ =   57
 SYSTEM =  idruro di alluminio
 POSCAR =  6H 2AL

 Startparameter for this run:
   NWRITE =      2    write-flag & timer
   PREC   = acc       medium, high low
   ISTART =      0    job   : 0-new  1-cont  2-samecut
   ICHARG =      2    charge: 1-file 2-atom 10-const
   ISPIN  =      1    spin polarized calculation?
   LNONCOLLINEAR =      F non collinear calculations
   LSORBIT =      F    spin-orbit coupling
   INIWAV =      1    electr: 0-lowe 1-rand  2-diag
   LASPH  =      F    aspherical Exc in radial PAW
   METAGGA=      F    non-selfconsistent MetaGGA calc.

 Electronic Relaxation 1
   ENCUT  = 1000.0 eV  73.50 Ry    8.57 a.u.  14.27 14.27 14.27*2*pi/ulx,y,z
   ENINI  = 1000.0     initial cutoff
   ENAUG  =  400.0 eV  augmentation charge cutoff
   NELM   =     60;   NELMIN=  2; NELMDL=-12     # of ELM steps
   EDIFF  = 0.3E-09   stopping-criterion for ELM
   LREAL  =      T    real-space projection
   LCOMPAT=      F    compatible to vasp.4.4
   LREAL_COMPAT= F    compatible to vasp.4.5.1-3
   GGA_COMPAT  = T    GGA compatible to vasp.4.4-vasp.4.6
   LMAXPAW     = -100 max onsite density
   LMAXMIX     =    2 max onsite mixed and CHGCAR
   VOSKOWN=      0    Vosko Wilk Nusair interpolation
   ROPT   =   -0.00025  -0.00025
 Ionic relaxation
   EDIFFG = 0.3E-08   stopping-criterion for IOM
   NSW    =    100    number of steps for IOM
   NBLOCK =      1;   KBLOCK =    100    inner block; outer block
   IBRION =      6    ionic relax: 0-MD 1-quasi-New 2-CG
   NFREE  =      2    steps in history (QN), initial steepest desc. (CG)
   ISIF   =      2    stress and relaxation
   IWAVPR =     11    prediction:  0-non 1-charg 2-wave 3-comb
   ISYM   =      2    0-nonsym 1-usesym 2-fastsym
   LCORR  =      T    Harris-Foulkes like correction to forces

   POTIM  = 0.0030    time-step for ionic-motion
   TEIN   =    0.0    initial temperature
   TEBEG  =    0.0;   TEEND  =   0.0 temperature during run
   SMASS  =  -3.00    Nose mass-parameter (am)
   estimated Nose-frequenzy (Omega)   =  0.10E-29 period in steps =****** mass=  -0.700E-27a.u.
   NPACO  =    256;   APACO  = 16.0  distance and # of slots for P.C.
   PSTRESS=    0.0 pullay stress

  Mass of Ions in am
   POMASS =   1.00 26.98
  Ionic Valenz
   ZVAL   =   1.00  3.00
  Atomic Wigner-Seitz radii
  virtual crystal weights
   VCA    =   1.00  1.00
   NELECT =      12.0000    total number of electrons
   NUPDOWN=      -1.0000    fix difference up-down

 DOS related values:
   EMIN   =  10.00;   EMAX   =-10.00  energy-range for DOS
   EFERMI =   0.00
   ISMEAR =     0;   SIGMA  =   0.10  broadening in eV -4-tet -1-fermi 0-gaus

 Electronic relaxation 2 (details)
   IALGO  =     48    algorithm
   LDIAG  =      T    sub-space diagonalisation (order eigenvalues)
   LSUBROT=      T    optimize rotation matrix (better conditioning)
   IMIX   =      4    mixing-type and parameters
     AMIX     =   0.40;   BMIX     =  1.00
     AMIX_MAG =   1.60;   BMIX_MAG =  1.00
     AMIN     =   0.10
     WC   =   100.;   INIMIX=   1;  MIXPRE=   1

 Intra band minimization:
   WEIMIN = 0.0010     energy-eigenvalue tresh-hold
   EBREAK =  0.62E-11  absolut break condition
   DEPER  =   0.30     relativ break condition

   TIME   =   0.40     timestep for ELM

  volume/ion in A,a.u.               =      15.04       101.48
  Fermi-wavevector in a.u.,A,eV,Ry     =   0.759226  1.434729  7.842725  0.576424
  Thomas-Fermi vector in A             =   1.857973

 Write flags
   LWAVE  =      T    write WAVECAR
   LCHARG =      T    write CHGCAR
   LVTOT  =      F    write LOCPOT, total local potential
   LVHAR  =      F    write LOCPOT, Hartree potential only
   LELF   =      F    write electronic localiz. function (ELF)
   LORBIT =      0    0 simple, 1 ext, 2 COOP (PROOUT)

 Dipole corrections
   LMONO  =      F    monopole corrections only (constant potential shift)
   LDIPOL =      F    correct potential (dipole corrections)
   IDIPOL =      0    1-x, 2-y, 3-z, 4-all directions
   EPSILON=  1.0000000 bulk dielectric constant

 Exchange correlation treatment:
   GGA     =    --    GGA type
   VOSKOWN=      0    Vosko Wilk Nusair interpolation
   LHFCALC =     F    Hartree Fock is set to
   LHFONE  =     F    Hartree Fock one center treatment
   AEXX    =    0.0000 exact exchange contribution

 Linear response parameters
   LEPSILON=     F    determine dielectric tensor
   LRPA    =     F    only Hartree local field effects (RPA)
   LNABLA  =     F    use nabla operator in PAW spheres
   LVEL    =     F    velocity operator in full k-point grid
   LINTERFAST=   F  fast interpolation
   KINTER  =     0    interpolate to denser k-point grid
   CSHIFT  =0.1000    complex shift for real part using Kramers Kronig
   OMEGAMAX=  -1.0    maximum frequency
   RTIME   =    0.100 relaxation time in fs

 Orbital magnetization related:
   ORBITALMAG=     F  switch on orbital magnetization
   LCHIMAG   =     F  perturbation theory with respect to B field

 finite differences with symmetry
 charge density and potential will be updated during run
 non-spin polarized calculation
 RMM-DIIS sequential band-by-band
 perform sub-space diagonalisation
    before iterative eigenvector-optimisation
 modified Broyden-mixing scheme, WC =      100.0
 initial mixing is a Kerker type mixing with AMIX =  0.4000 and BMIX =      1.0000
 Hartree-type preconditioning will be used
 using additional bands           10
 real space projection scheme for non local part
 use partial core corrections
 calculate Harris-corrections to forces
   (improved forces if not selfconsistent)
 use of overlap-Matrix (Vanderbilt PP)
 Gauss-broadening in eV      SIGMA  =   0.10

  energy-cutoff  :     1000.00
  volume of cell :      120.31
      direct lattice vectors                 reciprocal lattice vectors
     4.709796874 -0.122502810  2.902452493     0.207280003 -0.075988326  0.004976656
     1.560062040  4.445606137  2.902452178     0.002674933  0.220753345  0.004976658
    -0.177667856 -0.122503033  5.529454311    -0.110206937 -0.075988243  0.175625102

  length of vectors
     5.533662802  5.533663898  5.533664052     0.220825706  0.220825637  0.220825630

 k-points in units of 2pi/SCALE and weight: 1x1x1
   0.00000000  0.00000000  0.00000000       1.000

 k-points in reciprocal lattice and weights: 1x1x1
   0.00000000  0.00000000  0.00000000       1.000

[...]
  Direction    XX          YY          ZZ          XY          YZ          ZX
  Alpha Z     1.20186     1.20186     1.20186
  Ewald     -48.03871   -47.98248   -48.30088    -0.07322    -0.13668    -0.19829
  Hartree    12.60911    12.62249    12.54654    -0.01748    -0.03261    -0.04731
  E(xc)     -32.91452   -32.91473   -32.91356     0.00026     0.00050     0.00072
  Local     -38.61518   -38.68132   -38.30667     0.08614     0.16083     0.23331
  n-local    29.55795    29.55616    29.55786    -0.00023     0.00177    -0.00096
  augment    -2.57071    -2.57062    -2.57113    -0.00012    -0.00022    -0.00032
  Kinetic    78.89471    78.88204    78.95356     0.01655     0.03074     0.04458
  Fock        0.00000     0.00000     0.00000     0.00000     0.00000     0.00000
  Total       0.12451     0.11340     0.16758     0.01190     0.02433     0.03174
  in kB       1.65809     1.51017     2.23175     0.15844     0.32395     0.42271

 VOLUME and BASIS-vectors are now :
  energy-cutoff  :     1000.00
  volume of cell :      120.31
      direct lattice vectors                 reciprocal lattice vectors
     4.709796874 -0.122502810  2.902452493     0.207280003 -0.075988326  0.004976656
     1.560062040  4.445606137  2.902452178     0.002674933  0.220753345  0.004976658
    -0.177667856 -0.122503033  5.529454311    -0.110206937 -0.075988243  0.175625102

  length of vectors
     5.533662802  5.533663898  5.533664052     0.220825706  0.220825637  0.220825630

 FORCES acting on ions
    electron-ion (+dipol)            ewald-force                    non-local-force                 convergence-correction
   -.312E-01 0.856E-01 0.113E-02   0.250E-01 -.896E-01 -.141E-02   -.103E-02 0.102E-01 0.221E-03   -.180E-05 -.227E-05 -.244E-06
   -.295E-01 -.766E-01 0.269E-01   0.282E-01 0.784E-01 -.237E-01   -.278E-02 -.846E-02 0.147E-02   0.603E-06 0.109E-05 0.131E-05
   0.666E-01 -.898E-02 -.281E-01   -.669E-01 0.112E-01 0.253E-01   0.653E-02 -.177E-02 -.172E-02   0.777E-06 0.980E-06 -.132E-05
   0.616E-01 -.489E-01 0.113E-02   -.670E-01 0.440E-01 -.141E-02   0.808E-02 -.300E-02 0.220E-03   -.135E-05 -.201E-05 -.180E-06
   0.216E-01 0.579E-01 -.505E-01   -.225E-01 -.551E-01 0.530E-01   0.224E-02 0.475E-02 -.613E-02   0.534E-06 0.118E-05 0.147E-05
   -.772E-01 -.899E-02 0.492E-01   0.759E-01 0.112E-01 -.515E-01   -.761E-02 -.177E-02 0.588E-02   0.848E-06 0.931E-06 -.119E-05
   -.426E-01 0.175E-03 0.446E-03   0.407E-01 -.139E-03 -.361E-03   0.143E-01 -.579E-03 -.176E-02   0.196E-04 0.821E-07 0.331E-07
   0.200E-01 -.458E-04 -.362E-04   -.136E-01 0.273E-04 0.873E-04   -.477E-02 0.427E-05 -.619E-04   -.131E-04 -.549E-07 -.252E-06
   -.108E-01 0.355E-04 0.165E-03   -.737E-15 0.205E-14 0.140E-14   0.149E-01 -.593E-03 -.188E-02   0.611E-05 -.662E-07 -.374E-06

 POSITION                                       TOTAL-FORCE (eV/Angst)
      4.66294      3.20450      5.73604        -0.007720      0.006331      0.000153
      2.21698      3.21890      7.04540        -0.004600     -0.006617      0.004832
      3.78141      0.92765      7.05368         0.005772      0.000467     -0.004350
      1.42925      0.99610      5.59832         0.002168     -0.007838      0.000156
      3.87521      0.98170      4.28896         0.000813      0.007600     -0.003355
      2.31078      3.27295      4.28068        -0.009449      0.000475      0.003820
     -0.00300      0.00000      0.00000         0.011868     -0.000473     -0.001460
      3.04610      2.10030      5.66718         0.001148      0.000055      0.000203
    total drift:                                0.004154     -0.000557     -0.001711
 d Force = 0.3940842E-07[-0.712E-04, 0.713E-04]  d Energy = 0.4478494E-08 0.349E-07
 d Force = 0.2146193E-07[-0.244E-03, 0.244E-03]  d Ewald  = 0.2146191E-07 0.000E+00

 Finite differences progress:
  Degree of freedom:   3/  3
  Displacement:        2/  2
  Total:               6/  6

 INTERNAL STRAIN TENSORS FROM DISPLACED ATOMS

 INTERNAL STRAIN TENSOR FOR ION    1 for displacements in x,y,z  (eV/Angst):
          X           Y           Z          XY          YZ          ZX
  x     0.20467    -0.24471    -0.00518    -0.08543     0.04748    -0.03034
  y     0.18394    -0.12587     0.00751    -0.05897     0.03033    -0.02445
  z     0.00019    -0.00019     0.00000    -0.00007    -0.03414     0.02355

[...]

 INTERNAL STRAIN TENSOR FOR ION    8 for displacements in x,y,z  (eV/Angst):
          X           Y           Z          XY          YZ          ZX
  x     0.00000     0.00000     0.00000     0.00000     0.00000     0.00000
  y     0.00000     0.00000     0.00000     0.00000     0.00000     0.00000
  z     0.00000     0.00000     0.00000     0.00000     0.00000     0.00000

 SECOND DERIVATIVES (NOT SYMMETRIZED)
               1X          1Y          1Z          2X          2Y          2Z          3X          3Y          3Z          4X          4Y          4Z          5X          5Y          5Z          6X          6Y          6Z          7X          7Y          7Z          8X          8Y          8Z
  1X     3.755518    3.306173    0.195195    1.656898   -1.717879   -2.432325   -1.013710    2.060456   -2.144016   -6.240192   -4.336796   -0.260675   -1.150388    1.950076    2.157615    1.485817   -1.816505    2.450326    0.925754    0.246899   -0.049378    0.926273    0.251397   -0.051148
  1Y     3.306173    1.240153    0.134588    1.044544   -1.144029   -1.368637   -0.701966    1.526581   -1.786777   -4.336796   -2.940719   -0.179737   -0.813680    1.435007    1.800862    0.947251   -1.201200    1.376339    0.251594    0.736720   -0.035940    0.246701    0.736201   -0.033373
  1Z     0.184043    0.126899   -1.032423   -0.110080    0.117601   -0.023971    0.070778   -0.144700   -0.023971   -0.258261   -0.178072    0.039013   -0.166768    0.316268    0.166597    0.236308   -0.268320    0.166597   -0.051151   -0.033484    0.435625   -0.049483   -0.035904    0.435625
  2X     1.657524    1.045848   -0.109666    0.250424   -1.718197   -2.134532    0.628760   -1.257452    1.157252   -1.150343   -0.812089   -0.166738   -1.633463    2.244117    2.789031   -0.668098    0.778388   -1.188480    0.631273   -0.168642   -0.244622    0.631068   -0.164142   -0.246082
  2Y    -1.717777   -1.144029    0.116105   -1.711784    1.240152    2.831729   -1.102960    1.526580   -1.571243    1.950900    1.435007    0.314906    2.242729   -2.940719   -3.716217    0.625315   -1.201200    1.549379   -0.163941    0.736201    0.187346   -0.168781    0.736720    0.190011
  2Z    -2.431911   -1.367896   -0.024598   -2.123380    2.827486    2.472670   -1.057541    1.638668   -1.666443    2.157645    1.800926    0.166551    2.786618   -3.715299   -4.567715    1.025536   -1.663069    2.320513   -0.246287    0.189866    0.730626   -0.244309    0.187450    0.730311
  3X    -1.013164   -0.701835    0.069527    0.628679   -1.102930   -1.057115   -0.024802   -1.607086    1.887768    1.486625    0.947785    0.235046   -0.667335    0.625025    1.025577   -1.284411    2.109948   -2.481755    0.612728   -0.161805    0.090101    0.612413   -0.156766    0.088130
  3Y     2.061790    1.526661   -0.143781   -1.257421    1.526661    1.640288   -1.613500    1.515379   -3.001874   -1.815204   -1.201963   -0.267807    0.778097   -1.201963   -1.661701    2.111336   -3.289771    3.928086   -0.157165    0.755060   -0.297561   -0.161468    0.755060   -0.295248
  3Z    -2.143176   -1.786653   -0.024598    1.155587   -1.571065   -1.666443    1.887768   -2.989943    2.472671    2.450396    1.376345    0.166551   -1.189772    1.549827    2.320513   -2.481755    3.925504   -4.567716    0.088337   -0.294993    0.730311    0.089893   -0.297701    0.730626
  4X    -6.240192   -4.336796   -0.260675   -1.150388    1.950076    2.157615    1.485817   -1.816505    2.450326    3.755518    3.306173    0.195195    1.656898   -1.717879   -2.432325   -1.013710    2.060456   -2.144016    0.925754    0.246899   -0.049378    0.926273    0.251397   -0.051148
  4Y    -4.336796   -2.940719   -0.179737   -0.813680    1.435007    1.800862    0.947251   -1.201200    1.376339    3.306173    1.240153    0.134588    1.044544   -1.144029   -1.368637   -0.701966    1.526581   -1.786777    0.251594    0.736720   -0.035940    0.246701    0.736201   -0.033373
  4Z    -0.258261   -0.178072    0.039013   -0.166768    0.316268    0.166597    0.236308   -0.268320    0.166597    0.184043    0.126899   -1.032423   -0.110080    0.117601   -0.023971    0.070778   -0.144700   -0.023971   -0.051151   -0.033484    0.435625   -0.049483   -0.035904    0.435625
  5X    -1.150343   -0.812089   -0.166738   -1.633463    2.244117    2.789031   -0.668098    0.778388   -1.188480    1.657524    1.045848   -0.109666    0.250424   -1.718197   -2.134532    0.628760   -1.257452    1.157252    0.631273   -0.168642   -0.244622    0.631068   -0.164142   -0.246082
  5Y     1.950900    1.435007    0.314906    2.242729   -2.940719   -3.716217    0.625315   -1.201200    1.549379   -1.717777   -1.144029    0.116105   -1.711784    1.240152    2.831729   -1.102960    1.526580   -1.571243   -0.163941    0.736201    0.187346   -0.168781    0.736720    0.190011
  5Z     2.157645    1.800926    0.166551    2.786618   -3.715299   -4.567715    1.025536   -1.663069    2.320513   -2.431911   -1.367896   -0.024598   -2.123380    2.827486    2.472670   -1.057541    1.638668   -1.666443   -0.246287    0.189866    0.730626   -0.244309    0.187450    0.730311
  6X     1.486625    0.947785    0.235046   -0.667335    0.625025    1.025577   -1.284411    2.109948   -2.481755   -1.013164   -0.701835    0.069527    0.628679   -1.102930   -1.057115   -0.024802   -1.607086    1.887768    0.612728   -0.161805    0.090101    0.612413   -0.156766    0.088130
  6Y    -1.815204   -1.201963   -0.267807    0.778097   -1.201963   -1.661701    2.111336   -3.289771    3.928086    2.061790    1.526661   -0.143781   -1.257421    1.526661    1.640288   -1.613500    1.515379   -3.001874   -0.157165    0.755060   -0.297561   -0.161468    0.755060   -0.295248
  6Z     2.450396    1.376345    0.166551   -1.189772    1.549827    2.320513   -2.481755    3.925504   -4.567716   -2.143176   -1.786653   -0.024598    1.155587   -1.571065   -1.666443    1.887768   -2.989943    2.472671    0.088337   -0.294993    0.730311    0.089893   -0.297701    0.730626
  7X     0.751497    0.275388    0.018755    0.457706   -0.140381   -0.174197    0.438626   -0.134447    0.159766    0.751497    0.275388    0.018755    0.457706   -0.140381   -0.174197    0.438626   -0.134447    0.159766   -3.958154    0.197154    0.471765   -0.381355   -0.018890   -0.068107
  7Y     0.275921    0.542963    0.012719   -0.140867    0.541927    0.236531   -0.132660    0.561816   -0.246997    0.275921    0.542963    0.012719   -0.140867    0.541927    0.236531   -0.132660    0.561816   -0.246997    0.157913   -4.093226    0.340845   -0.030058   -0.362735   -0.042532
  7Z     0.020436    0.014510    0.354751   -0.176469    0.237491    0.649579    0.159676   -0.248762    0.648770    0.020436    0.014510    0.354751   -0.176469    0.237491    0.649579    0.159676   -0.248762    0.648770    0.486308    0.319753   -3.324403   -0.063968   -0.048535   -0.468721
  8X     0.752533    0.275526    0.018556    0.457479   -0.139831   -0.174053    0.437817   -0.133302    0.159140    0.752533    0.275526    0.018556    0.457479   -0.139831   -0.174053    0.437817   -0.133302    0.159140   -0.381355   -0.030058   -0.063968   -3.958154    0.157913    0.486308
  8Y     0.274994    0.541927    0.013007   -0.141619    0.542963    0.237145   -0.132815    0.561816   -0.246913    0.274994    0.541927    0.013007   -0.141619    0.542963    0.237145   -0.132815    0.561816   -0.246913   -0.018890   -0.362735   -0.048535    0.197154   -4.093226    0.319753
  8Z     0.020828    0.013942    0.354751   -0.175735    0.237689    0.648770    0.159230   -0.249378    0.649579    0.020828    0.013942    0.354751   -0.175735    0.237689    0.648770    0.159230   -0.249378    0.649579   -0.068107   -0.042532   -0.468721    0.471765    0.340845   -3.324403

 Eigenvectors and eigenvalues of the dynamical matrix

   1 f  =   29.699488 THz   186.607388 2PiTHz  990.668264 cm-1   122.827255 meV
             X         Y         Z           dx          dy          dz
      4.662941  3.204503  5.736042     0.086937    0.265060    0.053481
      2.216983  3.218901  7.045403     0.138779   -0.285360   -0.440064
      3.781410  0.927647  7.053683     0.000580   -0.133866    0.322109
      1.429250  0.996097  5.598316     0.086937    0.265060    0.053481
      3.875207  0.981700  4.288956     0.138779   -0.285360   -0.440064
      2.310781  3.272953  4.280676     0.000580   -0.133866    0.322109
      0.000000  0.000000  0.000000    -0.046246    0.031494    0.013180
      3.046095  2.100300  5.667179    -0.046237    0.031511    0.013170

[...]

  19 f  =    4.685197 THz    29.437958 2PiTHz  156.281331 cm-1    19.376422 meV
             X         Y         Z           dx          dy          dz
      4.662941  3.204503  5.736042    -0.000084    0.000121    0.000000
      2.216983  3.218901  7.045403    -0.000046   -0.000121    0.000070
      3.781410  0.927647  7.053683     0.000130    0.000000   -0.000070
      1.429250  0.996097  5.598316    -0.000084    0.000121    0.000000
      3.875207  0.981700  4.288956    -0.000046   -0.000121    0.000070
      2.310781  3.272953  4.280676     0.000130    0.000000   -0.000070
      0.000000  0.000000  0.000000     0.318246    0.219432    0.592088
      3.046095  2.100300  5.667179    -0.318246   -0.219432   -0.592088

  20 f/i=    0.123475 THz     0.775819 2PiTHz    4.118697 cm-1     0.510654 meV
             X         Y         Z           dx          dy          dz
      4.662941  3.204503  5.736042    -0.059109   -0.040756   -0.110773
      2.216983  3.218901  7.045403    -0.059778   -0.040756   -0.110413
      3.781410  0.927647  7.053683    -0.059347   -0.041381   -0.110413
      1.429250  0.996097  5.598316    -0.059109   -0.040756   -0.110773
      3.875207  0.981700  4.288956    -0.059778   -0.040756   -0.110413
      2.310781  3.272953  4.280676    -0.059347   -0.041381   -0.110413
      0.000000  0.000000  0.000000    -0.301150   -0.207645   -0.560282
      3.046095  2.100300  5.667179    -0.301150   -0.207645   -0.560282

[...]

  24 f/i=   75.295187 THz   473.093612 2PiTHz 2511.577014 cm-1   311.395975 meV
             X         Y         Z           dx          dy          dz
      4.662941  3.204503  5.736042     0.398030    0.274483    0.016279
      2.216983  3.218901  7.045403    -0.013191    0.017645    0.021833
      3.781410  0.927647  7.053683    -0.194996    0.308750   -0.362842
      1.429250  0.996097  5.598316    -0.398030   -0.274483   -0.016279
      3.875207  0.981700  4.288956     0.013191   -0.017645   -0.021833
      2.310781  3.272953  4.280676     0.194996   -0.308750    0.362842
      0.000000  0.000000  0.000000     0.000000    0.000000    0.000000
      3.046095  2.100300  5.667179     0.000000    0.000000    0.000000

  LATTYP: Found a trigonal (rhomboedric) cell.
 ALAT       =     5.5336638981
 COS(alpha) =     0.4972728444

  Lattice vectors:

 A1 = (   4.7097968736,  -0.1225028103,   2.9024524933)
 A2 = (   1.5600620396,   4.4456061370,   2.9024521779)
 A3 = (  -0.1776678556,  -0.1225030332,   5.5294543110)
 Subroutine PRICEL returns:
 Original cell was already a primitive cell.

Analysis of symmetry for initial positions (statically):

 Routine SETGRP: Setting up the symmetry group for a
 trigonal (rhombohedral) supercell.

 Subroutine GETGRP returns: Found 12 space group operations
 (whereof  6 operations were pure point group operations)
 out of a pool of 12 trial point group operations.

The static configuration has the point symmetry S_6 .
 The point group associated with its full space group is D_3d.

Analysis of symmetry for dynamics (positions and initial velocities):

 Subroutine DYNSYM returns: Found 12 space group operations
 (whereof  6 operations were pure point group operations)
 out of a pool of 12 trial space group operations
 (whereof  6 operations were pure point group operations)
 and found also     1 'primitive' translations

The dynamic configuration has the point symmetry S_6 .
 The point group associated with its full space group is D_3d.

 KPOINTS: 1x1x1

Automatic generation of k-mesh.

 Subroutine IBZKPT returns following result:

 Found      1 irreducible k-points:

 Following reciprocal coordinates:
            Coordinates               Weight
  0.000000  0.000000  0.000000      1.000000

 Following cartesian coordinates:
            Coordinates               Weight
  0.000000  0.000000  0.000000      1.000000

 writing wavefunctions