 vasp.4.6.35 3Apr08 complex
 executed on             LinuxIFC date 2010.07.19  17:34:47

 INCAR:
 POTCAR:   PAW_PBE H 15Jun2001
 POTCAR:   PAW_PBE Al 04Jan2001
 POTCAR:   PAW_PBE H 15Jun2001
   VRHFIN =H: ultrasoft test

   TITEL  = PAW_PBE H 15Jun2001
   POMASS =    1.000; ZVAL   =    1.000    mass and valenz
   ENMAX  =  250.000; ENMIN  =  200.000 eV
   QCUT   =   -5.749; QGAM   =   11.498    optimization parameters

   Description
     l     E      TYP  RCUT    TYP  RCUT
     0   .000     23  1.100
     0   .500     23  1.100
     1  -.300     23  1.100

 POTCAR:   PAW_PBE Al 04Jan2001
   VRHFIN =Al: s2p1

   TITEL  = PAW_PBE Al 04Jan2001
   POMASS =   26.982; ZVAL   =    3.000    mass and valenz
   ENMAX  =  240.300; ENMIN  =  180.225 eV
   QCUT   =   -4.203; QGAM   =    8.405    optimization parameters

   Description
     l     E      TYP  RCUT    TYP  RCUT
     0   .000     23  1.900
     0   .000     23  1.900
     1   .000     23  1.900
     1  1.000     23  1.900
     2   .000      7  1.900

 Optimization of the real space projectors (new method)

 maximal supplied QI-value         = 34.20
 optimisation between [QCUT,QGAM] = [ 13.34, 27.02] = [ 49.83,204.46] Ry
 Optimized for a Real-space Cutoff    0.98 Angstroem

   l    n(q)    QCUT    max X(q) W(low)/X(q) W(high)/X(q)  e(spline)
   0      8    13.340     4.436    0.25E-04    0.31E-04    0.21E-07
   0      8    13.340    16.131    0.17E-03    0.45E-04    0.18E-06
   1      7    13.340     4.654    0.16E-03    0.30E-03    0.13E-06
 Optimization of the real space projectors (new method)

 maximal supplied QI-value         = 19.84
 optimisation between [QCUT,QGAM] = [ 13.49, 26.99] = [ 50.98,203.92] Ry
 Optimized for a Real-space Cutoff    1.07 Angstroem

   l    n(q)    QCUT    max X(q) W(low)/X(q) W(high)/X(q)  e(spline)
   0      9    13.493    13.410    0.20E-04    0.44E-05    0.10E-07
   0      9    13.493   140.052    0.19E-03    0.97E-04    0.13E-06
   1      8    13.493     9.624    0.22E-04    0.43E-04    0.15E-07
   1      8    13.493    53.353    0.89E-04    0.12E-03    0.12E-06
 PAW_PBE H 15Jun2001                    :
 PAW_PBE Al 04Jan2001                   :

 POSCAR:  H 6   Al 2
  positions in cartesian coordinates

 ion  position               nearest neighbor table
   1  0.878  0.622  0.250-   7 1.72   8 1.72
   2  0.250  0.878  0.622-   8 1.72   7 1.72
   3  0.622  0.250  0.878-   7 1.72   8 1.72
   4  0.122  0.378  0.750-   8 1.72   7 1.72
   5  0.750  0.122  0.378-   7 1.72   8 1.72
   6  0.378  0.750  0.122-   8 1.72   7 1.72
   7  0.000  0.000  0.000-   1 1.72   4 1.72   3 1.72   6 1.72   5 1.72   2 1.72   8 3.24   8 3.24
                             8 3.24   8 3.24   8 3.24   8 3.24
   8  0.500  0.500  0.500-   4 1.72   6 1.72   2 1.72   5 1.72   3 1.72   1 1.72   7 3.24   7 3.24
                             7 3.24   7 3.24   7 3.24   7 3.24

  LATTYP: Found a trigonal (rhomboedric) cell.
 ALAT       =     4.6988904738
 COS(alpha) =     0.5517061931

  Lattice vectors:

 A1 = (   2.5688045527,   0.0000000000,   3.9345666667)
 A2 = (  -1.2844022764,   2.2246500000,   3.9345666667)
 A3 = (  -1.2844022764,  -2.2246500000,   3.9345666667)
 Subroutine PRICEL returns:
 Original cell was already a primitive cell.

Analysis of symmetry for initial positions (statically):

 Routine SETGRP: Setting up the symmetry group for a
 trigonal (rhombohedral) supercell.

 Subroutine GETGRP returns: Found 12 space group operations
 (whereof  6 operations were pure point group operations)
 out of a pool of 12 trial point group operations.

The static configuration has the point symmetry S_6 .
 The point group associated with its full space group is D_3d.

Analysis of symmetry for dynamics (positions and initial velocities):

 Subroutine DYNSYM returns: Found 12 space group operations
 (whereof  6 operations were pure point group operations)
 out of a pool of 12 trial space group operations
 (whereof  6 operations were pure point group operations)
 and found also     1 'primitive' translations

The dynamic configuration has the point symmetry S_6 .
 The point group associated with its full space group is D_3d.

 KPOINTS: 4x4x4

Automatic generation of k-mesh.

 Subroutine IBZKPT returns following result:

 Found     10 irreducible k-points:

 Following reciprocal coordinates:
            Coordinates               Weight
  0.125000  0.125000  0.125000      2.000000
  0.375000  0.125000  0.125000      6.000000
 -0.375000  0.125000  0.125000      6.000000
 -0.125000  0.125000  0.125000      6.000000
  0.375000  0.375000  0.125000      6.000000
 -0.375000  0.375000  0.125000     12.000000
 -0.125000  0.375000  0.125000     12.000000
 -0.375000 -0.375000  0.125000      6.000000
  0.375000  0.375000  0.375000      2.000000
 -0.375000  0.375000  0.375000      6.000000

 Following cartesian coordinates:
            Coordinates               Weight
  0.000000  0.000000  0.031770      2.000000
  0.064881  0.000000  0.052949      6.000000
 -0.129762  0.000000 -0.010590      6.000000
 -0.064881  0.000000  0.010590      6.000000
  0.032441  0.056189  0.074129      6.000000
 -0.162203  0.056189  0.010590     12.000000
 -0.097322  0.056189  0.031770     12.000000
 -0.064881 -0.112377 -0.052949      6.000000
  0.000000  0.000000  0.095309      2.000000
 -0.194643  0.000000  0.031770      6.000000

 I would recommend the setting:
   dimension x,y,z NGX =    41 NGY =   41 NGZ =   41
 SYSTEM =  idruro di alluminio
 POSCAR =   H 6   Al 2

 Startparameter for this run:
   NWRITE =      2    write-flag & timer
   PREC   = acc       medium, high low
   ISTART =      0    job   : 0-new  1-cont  2-samecut
   ICHARG =      2    charge: 1-file 2-atom 10-const
   ISPIN  =      1    spin polarized calculation?
   LNONCOLLINEAR =      F non collinear calculations
   LSORBIT =      F    spin-orbit coupling
   INIWAV =      1    electr: 0-lowe 1-rand  2-diag
   LASPH  =      F    aspherical Exc in radial PAW
   METAGGA=      F    non-selfconsistent MetaGGA calc.

 Electronic Relaxation 1
   ENCUT  =  700.0 eV  51.45 Ry    7.17 a.u.  10.14 10.14 10.14*2*pi/ulx,y,z
   ENINI  =  700.0     initial cutoff
   ENAUG  =  400.0 eV  augmentation charge cutoff
   NELM   =     60;   NELMIN=  2; NELMDL=  0     # of ELM steps
   EDIFF  = 0.1E-08   stopping-criterion for ELM
   LREAL  =      T    real-space projection
   LCOMPAT=      F    compatible to vasp.4.4
   LREAL_COMPAT= F    compatible to vasp.4.5.1-3
   GGA_COMPAT  = T    GGA compatible to vasp.4.4-vasp.4.6
   LMAXPAW     = -100 max onsite density
   LMAXMIX     =    2 max onsite mixed and CHGCAR
   VOSKOWN=      0    Vosko Wilk Nusair interpolation
   ROPT   =   -0.00025  -0.00025
 Ionic relaxation
   EDIFFG = 0.1E-06   stopping-criterion for IOM
   NSW    =     50    number of steps for IOM
   NBLOCK =      1;   KBLOCK =     50    inner block; outer block
   IBRION =      2    ionic relax: 0-MD 1-quasi-New 2-CG
   NFREE  =      1    steps in history (QN), initial steepest desc. (CG)
   ISIF   =      3    stress and relaxation
   IWAVPR =     11    prediction:  0-non 1-charg 2-wave 3-comb
   ISYM   =      2    0-nonsym 1-usesym 2-fastsym
   LCORR  =      T    Harris-Foulkes like correction to forces

   POTIM  =   0.50    time-step for ionic-motion
   TEIN   =    0.0    initial temperature
   TEBEG  =    0.0;   TEEND  =   0.0 temperature during run
   SMASS  =  -3.00    Nose mass-parameter (am)
   estimated Nose-frequenzy (Omega)   =  0.10E-29 period in steps =****** mass=  -0.505E-27a.u.
   NPACO  =    256;   APACO  = 16.0  distance and # of slots for P.C.
   PSTRESS=    0.0 pullay stress

  Mass of Ions in am
   POMASS =   1.00 26.98
  Ionic Valenz
   ZVAL   =   1.00  3.00
  Atomic Wigner-Seitz radii
   NELECT =      12.0000    total number of electrons
   NUPDOWN=      -1.0000    fix difference up-down

 DOS related values:
   EMIN   =  10.00;   EMAX   =-10.00  energy-range for DOS
   ISMEAR =     0;   SIGMA  =   0.10  broadening in eV -4-tet -1-fermi 0-gaus

 Electronic relaxation 2 (details)
   IALGO  =     48    algorithm
   LDIAG  =      T    sub-space diagonalisation
   IMIX   =      4    mixing-type and parameters
     AMIX     =   0.40;   BMIX     =  1.00
     AMIX_MAG =   1.60;   BMIX_MAG =  1.00
     AMIN     =   0.10
     WC   =   100.;   INIMIX=   1;  MIXPRE=   1

 Intra band minimization:
   WEIMIN = 0.0010     energy-eigenvalue tresh-hold
   EBREAK =  0.23E-10  absolut break condition
   DEPER  =   0.30     relativ break condition

   TIME   =   0.10     timestep for ELM

  volume/ion in A,a.u.               =       8.43        56.90
  Fermi-wavevector in a.u.,eV,Ry     =   0.920729 11.534217  0.847741

 Second variation
   LSECVAR=     F    do a second variation

 Write flags
   LWAVE  =      T    write WAVECAR
   LCHARG =      T    write CHGCAR
   LVTOT  =      F    write LOCPOT, local potential
   LELF   =      F    write electronic localiz. function (ELF)
   LORBIT =      0    0 simple, 1 ext, 2 COOP (PROOUT)

 Dipole corrections
   IDIPOL =      0    1-x, 2-y, 3-z
   LDIPOL =      F    correct potential

 conjugate gradient relaxation of ions
 charge density will be updated during run
 non-spin polarized calculation
 RMM-DIIS sequential band-by-band
 performe sub-space diagonalisation
    before iterative eigenvector-optimisation
 modified Broyden-mixing scheme, WC =      100.0
 initial mixing is a Kerker type mixing with AMIX =  0.4000 and BMIX =      1.0000
 Hartree-type preconditioning will be used
 using additional bands           10
 real space projection scheme for non local part
 use partial core corrections
 calculate Harris-corrections to forces
   (improved forces if not selfconsistent)
 use gradient corrections
 use of overlap-Matrix (Vanderbilt PP)
 Gauss-broadening in eV      SIGMA  =   0.10

  energy-cutoff  :      700.00
  volume of cell :       67.45
      direct lattice vectors                 reciprocal lattice vectors
     2.568804553  0.000000000  3.934566667     0.259524091  0.000000000  0.084719198
    -1.284402276  2.224650000  3.934566667    -0.129762046  0.224754456  0.084719198
    -1.284402276 -2.224650000  3.934566667    -0.129762046 -0.224754456  0.084719198

  length of vectors
     4.698890474  4.698890474  4.698890474     0.273002008  0.273002008  0.273002008

 k-points in units of 2pi/SCALE and weight: 4x4x4
   0.00000000  0.00000000  0.03176970       0.031
   0.06488102  0.00000000  0.05294950       0.094
  -0.12976205  0.00000000 -0.01058990       0.094
  -0.06488102  0.00000000  0.01058990       0.094
   0.03244051  0.05618861  0.07412930       0.094
  -0.16220256  0.05618861  0.01058990       0.188
  -0.09732153  0.05618861  0.03176970       0.188
  -0.06488102 -0.11237723 -0.05294950       0.094
   0.00000000  0.00000000  0.09530910       0.031
  -0.19464307  0.00000000  0.03176970       0.094

 k-points in reciprocal lattice and weights: 4x4x4
   0.12500000  0.12500000  0.12500000       0.031
   0.37500000  0.12500000  0.12500000       0.094
  -0.37500000  0.12500000  0.12500000       0.094
  -0.12500000  0.12500000  0.12500000       0.094
   0.37500000  0.37500000  0.12500000       0.094
  -0.37500000  0.37500000  0.12500000       0.188
[...]

 E-fermi :   1.3994     XC(G=0):  -8.7617     alpha+bet : -9.7338
   add alpha+bet to get absolut eigen values

 k-point   1 :       0.1250    0.1250    0.1250
  band No.  band energies     occupation
      1      -7.6350      2.00000
      2      -2.0976      2.00000
      3      -0.8499      2.00000
      4      -0.8499      2.00000
      5       0.7004      2.00000
      6       0.7004      2.00000
      7       3.7635      0.00000
      8       6.9175      0.00000
      9       6.9175      0.00000
     10       7.0226      0.00000
     11       7.7605      0.00000
     12       8.5717      0.00000
     13       8.5717      0.00000
     14      10.7664      0.00000
     15      12.7622      0.00000
     16      16.3183      0.00000

[...]

 soft charge-density along one line, spin component           1
         0         1         2         3         4         5         6         7         8         9
 total charge-density along one line

------------------------ aborting loop because EDIFF is reached ----------------------------------------

  FREE ENERGIE OF THE ION-ELECTRON SYSTEM (eV)
  free  energy   TOTEN  =       -27.828073 eV

  energy  without entropy=      -27.828073  energy(sigma->0) =      -27.828073

  FORCE on cell =-STRESS in cart. coord.  units (eV/reduce length):
  Direction    X        Y        Z        XY       YZ       ZX
  Alpha Z      2.20      2.20      2.20
  Ewald      -63.77    -63.77    -61.63      0.00      0.00      0.00
  Hartree      7.75      7.75      8.84      0.00      0.00      0.00
  E(xc)      -35.64    -35.64    -35.60      0.00      0.00      0.00
  Local      -17.19    -17.19    -20.62      0.00      0.00      0.00
  n-local     16.97     17.91     17.44      0.35      0.16     -0.39
  augment     -0.67     -0.67     -0.67      0.00      0.00      0.00
  Kinetic     88.29     92.44     90.45     -0.59     -3.56     -1.32
  Total        0.51      0.51      0.40      0.00      0.00      0.00
  in kB       12.02     12.02      9.60      0.00      0.00      0.00

 VOLUME and BASIS-vectors are now :
  energy-cutoff  :      700.00
  volume of cell :       67.45
      direct lattice vectors                 reciprocal lattice vectors
     2.568804553  0.000000000  3.934566667     0.259524091  0.000000000  0.084719198
    -1.284402276  2.224650000  3.934566667    -0.129762046  0.224754456  0.084719198
    -1.284402276 -2.224650000  3.934566667    -0.129762046 -0.224754456  0.084719198

[...]

 FORCES acting on ions
    electron-ion (+dipol)            ewald-force                    non-local-force                 convergence-correction
   -.492E+01 0.284E+01 -.382E-10   0.584E+01 -.337E+01 -.954E-10   -.892E+00 0.515E+00 0.867E-18   -.923E-07 0.533E-07 0.855E-15
   0.506E-09 -.568E+01 -.140E-09   0.196E-10 0.674E+01 0.338E-10   0.347E-17 -.103E+01 0.000E+00   0.102E-07 -.277E-06 -.742E-07
   0.492E+01 0.284E+01 0.520E-10   -.584E+01 -.337E+01 -.357E-10   0.892E+00 0.515E+00 0.000E+00   0.245E-06 0.130E-06 0.742E-07
   0.492E+01 -.284E+01 0.368E-10   -.584E+01 0.337E+01 -.229E-10   0.892E+00 -.515E+00 0.260E-17   0.923E-07 -.533E-07 -.212E-15
   -.506E-09 0.568E+01 0.140E-09   -.310E-11 -.674E+01 0.402E-10   0.000E+00 0.103E+01 0.000E+00   -.102E-07 0.277E-06 0.742E-07
   -.492E+01 -.284E+01 -.524E-10   0.584E+01 0.337E+01 0.251E-11   -.892E+00 -.515E+00 0.000E+00   -.245E-06 -.130E-06 -.742E-07
   -.305E-12 0.278E-13 -.460E-12   -.359E-10 0.354E-14 -.488E-10   0.827E-24 -.165E-23 0.000E+00   0.847E-15 -.161E-15 0.117E-15
   -.127E-09 -.184E-12 -.130E-09   0.118E-09 -.550E-14 0.126E-09   -.124E-23 0.000E+00 0.000E+00   -.862E-15 0.404E-15 0.692E-15
   -.128E-09 0.371E-12 -.132E-09   0.365E-15 0.702E-15 -.153E-14   -.111E-15 -.165E-23 0.347E-17   0.685E-16 0.344E-15 0.177E-14

 POSITION                                       TOTAL-FORCE (eV/Angst)
      1.13541      0.82757      6.88549         0.029271     -0.016900      0.000000
     -1.28440      0.56951      6.88549         0.000000      0.033799      0.000000
      0.14899     -1.39708      6.88549        -0.029271     -0.016900      0.000000
     -1.13541     -0.82757      4.91821        -0.029271      0.016900      0.000000
      1.28440     -0.56951      4.91821         0.000000     -0.033799      0.000000
     -0.14899      1.39708      4.91821         0.029271      0.016900      0.000000
      0.00000      0.00000      0.00000         0.000000      0.000000      0.000000
      0.00000      0.00000      5.90185         0.000000      0.000000      0.000000
    total drift:                                0.000000      0.000000      0.000000

[...]

 d Force = 0.2130376E-03[ 0.944E-04, 0.332E-03]  d Energy = 0.3046505E-02-0.283E-02
 d Force = 0.6601717E-01[ 0.659E-01, 0.662E-01]  d Ewald  =-0.4721283E+00 0.538E+00

[...]

 Steepest descent step on ions:
 trial-energy change:   -0.003047  1 .order   -0.003059   -0.004406   -0.001712
  (g-gl).g = 0.441E-02      g.g   = 0.441E-02  gl.gl    = 0.000E+00
 g(Force)  = 0.331E-03   g(Stress)= 0.408E-02 ortho     = 0.000E+00
 gamma     =   0.00000
 trial     =   1.00000
 opt step  =   1.66635  (harmonic =   1.63542) maximal distance =0.00271711
 next E    =   -27.831686   (d E  =  -0.00361)

[...]

 d Force = 0.1040684E-04[-0.420E-04, 0.628E-04]  d Energy = 0.5262194E-03-0.516E-03
 d Force = 0.4377106E-01[ 0.437E-01, 0.438E-01]  d Ewald  =-0.3131741E+00 0.357E+00

[...]

 d Force = 0.1916923E-05[ 0.180E-05, 0.204E-05]  d Energy = 0.1950212E-05-0.333E-07
 d Force =-0.2119569E-02[-0.212E-02,-0.212E-02]  d Ewald  = 0.1519597E-01-0.173E-01

[...]

 eigenvalue-minimisations  :    77
 total energy-change (2. order) : 0.1810633E-08  ( 0.0000000E+00)
 number of electron   12.0000000 magnetization
 augmentation part     0.0715995 magnetization

[...]

 d Force = 0.1016344E-04[ 0.102E-04, 0.101E-04]  d Energy = 0.2313480E-04-0.130E-04
 d Force =-0.1194142E-01[-0.119E-01,-0.119E-01]  d Ewald  =-0.2027991E-01 0.834E-02

[...]

 Conjugate gradient step on ions:
 trial-energy change:   -0.000023  1 .order   -0.000023   -0.000024   -0.000022
  (g-gl).g = 0.257E-04      g.g   = 0.216E-04  gl.gl    = 0.441E-02
 g(Force)  = 0.930E-05   g(Stress)= 0.123E-04 ortho     =-0.416E-05
 gamma     =   0.00584
 trial     =   1.12679
 opt step  =   4.50717  (harmonic =  11.25199) maximal distance =0.00118972
 next E    =   -27.831728   (d E  =  -0.00008)

[...]

 eigenvalue-minimisations  :    55
 total energy-change (2. order) :-0.7193535E-10  ( 0.0000000E+00)
 number of electron   12.0000000 magnetization
 augmentation part     0.0716293 magnetization

[...]

 Conjugate gradient step on ions:
 trial-energy change:   -0.000032  1 .order   -0.000032   -0.000034   -0.000030
  (g-gl).g = 0.217E-04      g.g   = 0.217E-04  gl.gl    = 0.216E-04
 g(Force)  = 0.111E-04   g(Stress)= 0.106E-04 ortho     =-0.418E-07
 gamma     =   1.00636
 trial     =   1.56861
 opt step  =   6.27445  (harmonic =  15.07315) maximal distance =0.00354193
 next E    =   -27.831931   (d E  =  -0.00016)

[...]

 d Force = 0.7042969E-04[ 0.544E-04, 0.865E-04]  d Energy = 0.7757415E-04-0.714E-05
 d Force =-0.1063088E+00[-0.106E+00,-0.106E+00]  d Ewald  =-0.1832653E+00 0.770E-01

[...]

 d Force = 0.4363200E-04[-0.216E-04, 0.109E-03]  d Energy = 0.6856576E-04-0.249E-04
 d Force =-0.2120154E+00[-0.212E+00,-0.212E+00]  d Ewald  =-0.3655762E+00 0.154E+00

[...]

 d Force =-0.2207210E-05[-0.262E-05,-0.179E-05]  d Energy = 0.4625918E-06-0.267E-05
 d Force =-0.1754926E-01[-0.175E-01,-0.176E-01]  d Ewald  =-0.3029135E-01 0.127E-01

[...]

 d Force = 0.5133054E-06[ 0.274E-05,-0.172E-05]  d Energy =-0.5783854E-05 0.630E-05
 d Force =-0.1146906E-01[-0.115E-01,-0.115E-01]  d Ewald  =-0.9060006E-01 0.791E-01

[...]

 Conjugate gradient step on ions:
 trial-energy change:    0.000006  1 .order    0.000004   -0.000015    0.000023
  (g-gl).g = 0.428E-05      g.g   = 0.325E-05  gl.gl    = 0.217E-04
 g(Force)  = 0.284E-06   g(Stress)= 0.296E-05 ortho     = 0.710E-07
 gamma     =   0.19700
 trial     =   4.54844
 opt step  =   1.51164  (harmonic =   1.78285) maximal distance =0.00009586
 next E    =   -27.831949   (d E  =   0.00000)

[...]

 d Force =-0.8199294E-06[ 0.189E-06,-0.183E-05]  d Energy = 0.8071497E-05-0.889E-05
 d Force = 0.7649941E-02[ 0.765E-02, 0.765E-02]  d Ewald  = 0.6047708E-01-0.528E-01

[...]

 d Force = 0.3017418E-07[ 0.293E-08, 0.574E-07]  d Energy = 0.1466873E-06-0.117E-06
 d Force = 0.2321131E-02[ 0.232E-02, 0.232E-02]  d Ewald  = 0.3127659E-02-0.807E-03

[...]

 Conjugate gradient step on ions:
 trial-energy change:    0.000000  1 .order    0.000000    0.000000    0.000000
  (g-gl).g =-0.354E-06      g.g   = 0.130E-06  gl.gl    = 0.325E-05
 g(Force)  = 0.778E-08   g(Stress)= 0.123E-06 ortho     = 0.477E-06
 gamma     =  -0.10895
 trial     =   3.94108
 opt step  =   4.67807  (harmonic =   4.67807) maximal distance =0.00006931
 next E    =   -27.831949   (d E  =   0.00000)

[...]

 d Force =-0.1556587E-08[-0.366E-08, 0.548E-09]  d Energy =-0.1292079E-08-0.265E-09
 d Force = 0.4340583E-03[ 0.434E-03, 0.434E-03]  d Ewald  = 0.5850007E-03-0.151E-03

[...]

 eigenvalue-minimisations  :    48
 total energy-change (2. order) :-0.1161311E-09  ( 0.7926992E-13)
 number of electron   12.0000000 magnetization
 augmentation part     0.0717097 magnetization

[...]

 d Force = 0.1134415E-07[ 0.176E-07, 0.511E-08]  d Energy =-0.1145529E-06 0.126E-06
 d Force =-0.6056586E-03[-0.606E-03,-0.606E-03]  d Ewald  =-0.5942136E-02 0.534E-02

[...]

 Conjugate gradient step on ions:
 trial-energy change:    0.000000  1 .order    0.000000    0.000000    0.000000
  (g-gl).g =-0.907E-08      g.g   = 0.249E-07  gl.gl    = 0.130E-06
 g(Force)  = 0.904E-09   g(Stress)= 0.240E-07 ortho     =-0.393E-08
 gamma     =  -0.06956
 trial     =   4.08848
 opt step  =   2.20505  (harmonic =   2.20505) maximal distance =0.00000822
 next E    =   -27.831949   (d E  =   0.00000)

 real space projection operators:
  max/ min on nodes  :   1651.34   1651.34

[...]

 eigenvalue-minimisations  :   166
 total energy-change (2. order) : 0.1448484E-08  (-0.7857191E-11)
 number of electron   12.0000000 magnetization
 augmentation part     0.0717122 magnetization

[...]

 eigenvalue-minimisations  :    91
 total energy-change (2. order) :-0.2426475E-08  (-0.5646594E-12)
 number of electron   12.0000000 magnetization
 augmentation part     0.0717122 magnetization

 Broyden mixing:
  rms(total) = 0.20018E-06    rms(broyden)= 0.20017E-06
  rms(prec ) = 0.42850E-06
  weight for this iteration     100.00

 eigenvalues of (default mixing * dielectric matrix)
  average eigenvalue GAMMA=   1.8004
  2.7724  2.4208  1.0508  0.9574

[...]

----------------------------------------- Iteration   17(   6)  ---------------------------------------

 eigenvalue-minimisations  :    28
 total energy-change (2. order) : 0.3659864E-09  ( 0.0000000E+00)
 number of electron   12.0000000 magnetization
 augmentation part     0.0717122 magnetization

 Free energy of the ion-electron system (eV)
  alpha Z        PSCENC =         2.15862225
  Ewald energy   TEWEN  =      -187.51956782
  -1/2 Hartree   DENC   =       -24.71024161
  -V(xc)+E(xc)   XCENC  =       -35.25956233
  PAW double counting   =        92.19625549      -28.41415246
  entropy T*S    EENTRO =         0.00000000
  eigenvalues    EBANDS =       -28.28948775
  atomic energy  EATOM  =       182.00618482
  free energy    TOTEN  =       -27.83194941 eV

  energy without entropy =      -27.83194941  energy(sigma->0) =      -27.83194941

 average (electrostatic) potential at core
  the test charge radii are     0.5201  1.0406
  (the norm of the test charge is              1.0000)
       1 -33.7125       2 -33.7125       3 -33.7125       4 -33.7125       5 -33.7125
       6 -33.7125       7 -77.8225       8 -77.8225

 E-fermi :   1.2508     XC(G=0):  -8.6846     alpha+bet : -9.5420
   add alpha+bet to get absolut eigen values

[...]

 k-point  10 :      -0.3750    0.3750    0.3750
  band No.  band energies     occupation
      1      -5.5442      2.00000
      2      -5.0039      2.00000
      3      -2.6031      2.00000
      4      -1.4975      2.00000
      5      -0.2943      2.00000
      6       0.4571      2.00000
      7       6.2305      0.00000
      8       6.6220      0.00000
      9       7.8549      0.00000
     10       8.6464      0.00000
     11       9.2045      0.00000
     12      11.3464      0.00000
     13      11.7830      0.00000
     14      11.9818      0.00000
     15      12.0667      0.00000
     16      15.9818      0.00000

 soft charge-density along one line, spin component           1
         0         1         2         3         4         5         6         7         8         9
 total charge-density along one line

------------------------ aborting loop because EDIFF is reached ----------------------------------------

 d Force =-0.6394693E-08[-0.469E-08,-0.810E-08]  d Energy = 0.7581187E-07-0.822E-07
 d Force = 0.2789906E-03[ 0.279E-03, 0.279E-03]  d Ewald  = 0.2737300E-02-0.246E-02

  FREE ENERGIE OF THE ION-ELECTRON SYSTEM (eV)
  free  energy   TOTEN  =       -27.831949 eV

  energy  without entropy=      -27.831949  energy(sigma->0) =      -27.831949

  FORCE on cell =-STRESS in cart. coord.  units (eV/reduce length):
  Direction    X        Y        Z        XY       YZ       ZX
  Alpha Z      2.16      2.16      2.16
  Ewald      -63.09    -63.09    -61.33      0.00      0.00      0.00
  Hartree      7.87      7.87      8.97      0.00      0.00      0.00
  E(xc)      -35.49    -35.49    -35.46      0.00      0.00      0.00
  Local      -17.81    -17.81    -20.88      0.00      0.00      0.00
  n-local     16.85     17.78     17.25      0.35      0.15     -0.39
  augment     -0.68     -0.68     -0.67      0.00      0.00      0.00
  Kinetic     87.64     91.82     89.96     -0.57     -3.50     -1.30
  Total        0.00      0.00      0.00      0.00      0.00      0.00
  in kB        0.00      0.00     -0.01      0.00      0.00      0.00

 VOLUME and BASIS-vectors are now :
  energy-cutoff  :      700.00
  volume of cell :       68.81
      direct lattice vectors                 reciprocal lattice vectors
     2.590792692  0.000000000  3.945825502     0.257321502  0.000000000  0.084477464
    -1.295396346  2.243692287  3.945825502    -0.128660751  0.222846958  0.084477464
    -1.295396346 -2.243692287  3.945825502    -0.128660751 -0.222846958  0.084477464

  length of vectors
     4.720354400  4.720354400  4.720354400     0.270833523  0.270833523  0.270833523

 FORCES acting on ions
    electron-ion (+dipol)            ewald-force                    non-local-force                 convergence-correction
   -.487E+01 0.281E+01 -.384E-10   0.574E+01 -.331E+01 -.939E-10   -.870E+00 0.502E+00 -.222E-14   0.175E-06 -.101E-06 -.426E-16
   0.890E-09 -.562E+01 -.172E-09   0.190E-10 0.663E+01 0.346E-10   0.000E+00 -.100E+01 0.000E+00   0.100E-07 0.318E-07 -.750E-07
   0.487E+01 0.281E+01 0.849E-10   -.574E+01 -.331E+01 -.345E-10   0.870E+00 0.502E+00 0.222E-14   -.225E-07 -.246E-07 0.750E-07
   0.487E+01 -.281E+01 0.368E-10   -.574E+01 0.331E+01 -.228E-10   0.870E+00 -.502E+00 0.222E-14   -.175E-06 0.101E-06 0.259E-16
   -.889E-09 0.562E+01 0.173E-09   -.350E-11 -.663E+01 0.398E-10   0.000E+00 0.100E+01 0.000E+00   -.100E-07 -.318E-07 0.750E-07
   -.487E+01 -.281E+01 -.849E-10   0.574E+01 0.331E+01 0.147E-11   -.870E+00 -.502E+00 -.222E-14   0.225E-07 0.246E-07 -.750E-07
   -.302E-12 0.281E-13 -.446E-12   -.358E-10 -.643E-14 -.473E-10   0.646E-26 0.116E-24 0.465E-24   -.557E-16 0.458E-15 -.293E-15
   -.126E-09 -.183E-12 -.126E-09   0.117E-09 0.106E-13 0.123E-09   -.155E-24 0.465E-24 -.207E-24   0.442E-15 -.631E-15 0.148E-14
   -.127E-09 0.721E-13 -.127E-09   -.973E-15 0.234E-14 0.259E-14   -.149E-24 -.333E-15 0.607E-17   0.911E-15 -.224E-15 0.216E-14

 POSITION                                       TOTAL-FORCE (eV/Angst)
      1.13678      0.83948      6.90519        -0.000096      0.000056      0.000000
     -1.29540      0.56474      6.90519         0.000000     -0.000111      0.000000
      0.15862     -1.40422      6.90519         0.000096      0.000056      0.000000
     -1.13678     -0.83948      4.93228         0.000096     -0.000056      0.000000
      1.29540     -0.56474      4.93228         0.000000      0.000111      0.000000
     -0.15862      1.40422      4.93228        -0.000096     -0.000056      0.000000
      0.00000      0.00000      0.00000         0.000000      0.000000      0.000000
      0.00000      0.00000      5.91874         0.000000      0.000000      0.000000
    total drift:                                0.000000      0.000000      0.000000

 reached required accuracy - stopping structural energy minimisation
 writing wavefunctions