 vasp.5.2.8 07Jul10 complex
 executed on             LinuxIFC date 2010.11.29  15:34:56

 INCAR:
 POTCAR:   PAW_PBE H 15Jun2001
 POTCAR:   PAW_PBE C 08Apr2002
 POTCAR:   PAW_PBE O 08Apr2002
 POTCAR:   PAW_PBE Si 05Jan2001
 POTCAR:   PAW_PBE H 15Jun2001
   VRHFIN =H: ultrasoft test

   TITEL  = PAW_PBE H 15Jun2001
   POMASS =    1.000; ZVAL   =    1.000    mass and valenz
   ENMAX  =  250.000; ENMIN  =  200.000 eV
   QCUT   =   -5.749; QGAM   =   11.498    optimization parameters

   Description
     l     E      TYP  RCUT    TYP  RCUT
     0   .000     23  1.100
     0   .500     23  1.100
     1  -.300     23  1.100

 POTCAR:   PAW_PBE C 08Apr2002
   VRHFIN =C: s2p2

   TITEL  = PAW_PBE C 08Apr2002
   POMASS =   12.011; ZVAL   =    4.000    mass and valenz
   ENMAX  =  400.000; ENMIN  =  300.000 eV
   QCUT   =   -5.516; QGAM   =   11.032    optimization parameters

[...]

 POTCAR:   PAW_PBE O 08Apr2002
   VRHFIN =O: s2p4

   TITEL  = PAW_PBE O 08Apr2002
   POMASS =   16.000; ZVAL   =    6.000    mass and valenz
   ENMAX  =  400.000; ENMIN  =  300.000 eV
   QCUT   =   -5.520; QGAM   =   11.041    optimization parameters

[...]

 POTCAR:   PAW_PBE Si 05Jan2001
   VRHFIN =Si: s2p2

   TITEL  = PAW_PBE Si 05Jan2001
   POMASS =   28.085; ZVAL   =    4.000    mass and valenz
   ENMAX  =  245.345; ENMIN  =  184.009 eV
   QCUT   =   -4.246; QGAM   =    8.493    optimization parameters

   Description
     l     E      TYP  RCUT    TYP  RCUT
     0   .000     23  1.900
     0   .000     23  1.900
     1   .000     23  1.900
     1   .000     23  1.900
     2   .000      7  1.900

 Optimization of the real space projectors (new method)

 maximal supplied QI-value         = 34.20
 optimisation between [QCUT,QGAM] = [ 10.60, 21.55] = [ 31.48,130.03] Ry
 Optimized for a Real-space Cutoff    1.26 Angstroem

   l    n(q)    QCUT    max X(q) W(low)/X(q) W(high)/X(q)  e(spline)
   0      8    10.603     4.436    0.27E-04    0.54E-04    0.48E-07
   0      8    10.603    16.131    0.19E-03    0.36E-03    0.25E-06
   1      8    10.603     4.654    0.39E-04    0.18E-03    0.33E-06
 Optimization of the real space projectors (new method)

[...]

   l    n(q)    QCUT    max X(q) W(low)/X(q) W(high)/X(q)  e(spline)
   0      9    10.645     4.192    0.39E-04    0.27E-04    0.82E-07
   0      9    10.645     8.473    0.18E-03    0.22E-03    0.25E-06
   1      8    10.645     2.474    0.49E-04    0.70E-04    0.49E-07
   1      8    10.645     3.912    0.18E-03    0.30E-03    0.21E-06
 Optimization of the real space projectors (new method)

 maximal supplied QI-value         = 19.84
 optimisation between [QCUT,QGAM] = [ 10.71, 21.63] = [ 32.15,130.99] Ry
 Optimized for a Real-space Cutoff    1.23 Angstroem

   l    n(q)    QCUT    max X(q) W(low)/X(q) W(high)/X(q)  e(spline)
   0      8    10.715     8.708    0.18E-04    0.72E-05    0.49E-08
   0      8    10.715   106.241    0.14E-03    0.42E-04    0.45E-07
   1      7    10.715     5.901    0.35E-04    0.27E-04    0.17E-07
   1      7    10.715    73.241    0.11E-03    0.32E-03    0.80E-07
 PAW_PBE H 15Jun2001                    :
 PAW_PBE C 08Apr2002                    :
 PAW_PBE O 08Apr2002                    :
 PAW_PBE Si 05Jan2001                   :

 POSCAR: H 4   C 1   O 2   Si 1
  positions in direct lattice
  velocities in cartesian coordinates
 exchange correlation table for  LEXCH =        8
   RHO(1)=    0.500       N(1)  =     2000
   RHO(2)=  100.500       N(2)  =     4000

 ion  position               nearest neighbor table
   1  0.473  0.559  0.533-   6 0.97
   2  0.144  0.646  0.533-   8 1.49
   3  0.228  0.451  0.654-   8 1.50
   4  0.228  0.451  0.412-   8 1.50
   5  0.662  0.444  0.533-   7 1.14
   6  0.393  0.614  0.533-   1 0.97   8 1.66
   7  0.763  0.391  0.533-   5 1.14
   8  0.246  0.538  0.533-   2 1.49   4 1.50   3 1.50   6 1.66

  LATTYP: Found a simple cubic cell.
 ALAT       =    10.0000000000

  Lattice vectors:

 A1 = (  10.0000000000,   0.0000000000,   0.0000000000)
 A2 = (   0.0000000000,  10.0000000000,   0.0000000000)
 A3 = (   0.0000000000,   0.0000000000,  10.0000000000)
 Subroutine PRICEL returns:
 Original cell was already a primitive cell.

Analysis of symmetry for initial positions (statically):

 Routine SETGRP: Setting up the symmetry group for a
 simple cubic supercell.

 Subroutine GETGRP returns: Found  2 space group operations
 (whereof  1 operations were pure point group operations)
 out of a pool of 48 trial point group operations.

The static configuration has the point symmetry C_1 .
 The point group associated with its full space group is C_1h.

Analysis of symmetry for dynamics (positions and initial velocities):

 Subroutine DYNSYM returns: Found  2 space group operations
 (whereof  1 operations were pure point group operations)
 out of a pool of  2 trial space group operations
 (whereof  1 operations were pure point group operations)
 and found also     1 'primitive' translations

The dynamic configuration has the point symmetry C_1 .
 The point group associated with its full space group is C_1h.

 KPOINTS: 1x1x1

Automatic generation of k-mesh.

 Subroutine IBZKPT returns following result:

 Found      1 irreducible k-points:

 Following reciprocal coordinates:
            Coordinates               Weight
  0.000000  0.000000  0.000000      1.000000

 Following cartesian coordinates:
            Coordinates               Weight
  0.000000  0.000000  0.000000      1.000000

 I would recommend the setting:
   dimension x,y,z NGX =    69 NGY =   69 NGZ =   69
 SYSTEM =  silanolo co
 POSCAR =  H 4   C 1   O 2   Si 1

 Startparameter for this run:
   NWRITE =      2    write-flag & timer
   PREC   = acc       medium, high low
   ISTART =      0    job   : 0-new  1-cont  2-samecut
   ICHARG =      2    charge: 1-file 2-atom 10-const
   ISPIN  =      1    spin polarized calculation?
   LNONCOLLINEAR =      F non collinear calculations
   LSORBIT =      F    spin-orbit coupling
   INIWAV =      1    electr: 0-lowe 1-rand  2-diag
   LASPH  =      F    aspherical Exc in radial PAW
   METAGGA=      F    non-selfconsistent MetaGGA calc.

 Electronic Relaxation 1
   ENCUT  =  450.0 eV  33.07 Ry    5.75 a.u.  17.30 17.30 17.30*2*pi/ulx,y,z
   ENINI  =  450.0     initial cutoff
   ENAUG  =  644.9 eV  augmentation charge cutoff
   NELM   =     60;   NELMIN=  2; NELMDL=-12     # of ELM steps
   EDIFF  = 0.3E-05   stopping-criterion for ELM
   LREAL  =      T    real-space projection
   LCOMPAT=      F    compatible to vasp.4.4
   LREAL_COMPAT= F    compatible to vasp.4.5.1-3
   GGA_COMPAT  = T    GGA compatible to vasp.4.4-vasp.4.6
   LMAXPAW     = -100 max onsite density
   LMAXMIX     =    2 max onsite mixed and CHGCAR
   VOSKOWN=      0    Vosko Wilk Nusair interpolation
   ROPT   =   -0.00025  -0.00025  -0.00025  -0.00025
 Ionic relaxation
   EDIFFG = -.2E-01   stopping-criterion for IOM
   NSW    =    100    number of steps for IOM
   NBLOCK =      1;   KBLOCK =    100    inner block; outer block
   IBRION =      2    ionic relax: 0-MD 1-quasi-New 2-CG
   NFREE  =      1    steps in history (QN), initial steepest desc. (CG)
   ISIF   =      2    stress and relaxation
   IWAVPR =     11    prediction:  0-non 1-charg 2-wave 3-comb
   ISYM   =      2    0-nonsym 1-usesym 2-fastsym
   LCORR  =      T    Harris-Foulkes like correction to forces

   POTIM  = 0.5000    time-step for ionic-motion
   TEIN   =    0.0    initial temperature
   TEBEG  =    0.0;   TEEND  =   0.0 temperature during run
   SMASS  =  -3.00    Nose mass-parameter (am)
   estimated Nose-frequenzy (Omega)   =  0.10E-29 period in steps =****** mass=  -0.229E-26a.u.
   NPACO  =    256;   APACO  = 16.0  distance and # of slots for P.C.
   PSTRESS=    0.0 pullay stress

  Mass of Ions in am
   POMASS =   1.00 12.01 16.00 28.09
  Ionic Valenz
   ZVAL   =   1.00  4.00  6.00  4.00
  Atomic Wigner-Seitz radii
  virtual crystal weights
   VCA    =   1.00  1.00  1.00  1.00
   NELECT =      24.0000    total number of electrons
   NUPDOWN=      -1.0000    fix difference up-down

 DOS related values:
   EMIN   =  10.00;   EMAX   =-10.00  energy-range for DOS
   EFERMI =   0.00
   ISMEAR =     0;   SIGMA  =   0.10  broadening in eV -4-tet -1-fermi 0-gaus

 Electronic relaxation 2 (details)
   IALGO  =     48    algorithm
   LDIAG  =      T    sub-space diagonalisation (order eigenvalues)
   LSUBROT=      T    optimize rotation matrix (better conditioning)
   IMIX   =      4    mixing-type and parameters
     AMIX     =   0.40;   BMIX     =  1.00
     AMIX_MAG =   1.60;   BMIX_MAG =  1.00
     AMIN     =   0.10
     WC   =   100.;   INIMIX=   1;  MIXPRE=   1

 Intra band minimization:
   WEIMIN = 0.0010     energy-eigenvalue tresh-hold
   EBREAK =  0.40E-07  absolut break condition
   DEPER  =   0.30     relativ break condition

   TIME   =   0.40     timestep for ELM

  volume/ion in A,a.u.               =     125.00       843.54
  Fermi-wavevector in a.u.,A,eV,Ry     =   0.472221  0.892368  3.033999  0.222993
  Thomas-Fermi vector in A             =   1.465300

 Write flags
   LWAVE  =      T    write WAVECAR
   LCHARG =      T    write CHGCAR
   LVTOT  =      F    write LOCPOT, total local potential
   LVHAR  =      F    write LOCPOT, Hartree potential only
   LELF   =      F    write electronic localiz. function (ELF)
   LORBIT =      0    0 simple, 1 ext, 2 COOP (PROOUT)

 Dipole corrections
   LMONO  =      F    monopole corrections only (constant potential shift)
   LDIPOL =      F    correct potential (dipole corrections)
   IDIPOL =      0    1-x, 2-y, 3-z, 4-all directions
   EPSILON=  1.0000000 bulk dielectric constant

 Exchange correlation treatment:
   GGA     =    --    GGA type
   VOSKOWN=      0    Vosko Wilk Nusair interpolation
   LHFCALC =     F    Hartree Fock is set to
   LHFONE  =     F    Hartree Fock one center treatment
   AEXX    =    0.0000 exact exchange contribution

 Linear response parameters
   LEPSILON=     F    determine dielectric tensor
   LRPA    =     F    only Hartree local field effects (RPA)
   LNABLA  =     F    use nabla operator in PAW spheres
   LVEL    =     F    velocity operator in full k-point grid
   LINTERFAST=   F  fast interpolation
   KINTER  =     0    interpolate to denser k-point grid
   CSHIFT  =0.1000    complex shift for real part using Kramers Kronig
   OMEGAMAX=  -1.0    maximum frequency
   RTIME   =    0.100 relaxation time in fs

 Orbital magnetization related:
   ORBITALMAG=     F  switch on orbital magnetization
   LCHIMAG   =     F  perturbation theory with respect to B field

 conjugate gradient relaxation of ions
 charge density and potential will be updated during run
 non-spin polarized calculation
 RMM-DIIS sequential band-by-band
 perform sub-space diagonalisation
    before iterative eigenvector-optimisation
 modified Broyden-mixing scheme, WC =      100.0
 initial mixing is a Kerker type mixing with AMIX =  0.4000 and BMIX =      1.0000
 Hartree-type preconditioning will be used
 using additional bands           12
 real space projection scheme for non local part
 use partial core corrections
 calculate Harris-corrections to forces
   (improved forces if not selfconsistent)
 use gradient corrections
 use of overlap-Matrix (Vanderbilt PP)
 Gauss-broadening in eV      SIGMA  =   0.10

  energy-cutoff  :      450.00
  volume of cell :     1000.00
      direct lattice vectors                 reciprocal lattice vectors
    10.000000000  0.000000000  0.000000000     0.100000000  0.000000000  0.000000000
     0.000000000 10.000000000  0.000000000     0.000000000  0.100000000  0.000000000
     0.000000000  0.000000000 10.000000000     0.000000000  0.000000000  0.100000000

  length of vectors
    10.000000000 10.000000000 10.000000000     0.100000000  0.100000000  0.100000000

 k-points in units of 2pi/SCALE and weight: 1x1x1
   0.00000000  0.00000000  0.00000000       1.000

 k-points in reciprocal lattice and weights: 1x1x1
   0.00000000  0.00000000  0.00000000       1.000

 position of ions in fractional coordinates (direct lattice)
   0.47332967  0.55857933  0.53333333
   0.14384755  0.64584306  0.53333333
   0.22773111  0.45130808  0.65428306
   0.22773111  0.45130808  0.41238361
   0.66167668  0.44356890  0.53333333
   0.39326084  0.61420629  0.53333333
   0.76286779  0.39089929  0.53333333
   0.24615485  0.53766569  0.53333333

 position of ions in cartesian coordinates  (Angst):
   4.73329675  5.58579328  5.33333333
   1.43847549  6.45843062  5.33333333
   2.27731111  4.51308080  6.54283058
   2.27731111  4.51308080  4.12383609
   6.61676683  4.43568898  5.33333333
   3.93260839  6.14206288  5.33333333
   7.62867793  3.90899294  5.33333333
   2.46154850  5.37665686  5.33333333

 k-point  1 :  0.00000.00000.0000  plane waves:   21823

 maximum and minimum number of plane-waves per node :   21823  21823

 maximum number of plane-waves:   21823
 maximal index in each direction:
   IXMAX= 17   IYMAX= 17   IZMAX= 17
   IXMIN=-17   IYMIN=-17   IZMIN=-17

 NGX is ok and might be reduce to  70
 NGY is ok and might be reduce to  70
 NGZ is ok and might be reduce to  70

 serial   3D FFT for wavefunctions
 parallel 3D FFT for charge:
    minimum data exchange during FFTs selected (reduces bandwidth)

 Broyden mixing: mesh for mixing (old mesh)
   NGX = 35   NGY = 35   NGZ = 35
  (NGX  =140   NGY  =140   NGZ  =140)
  gives a total of  42875 points

 initial charge density was supplied:
 charge density of overlapping atoms calculated
 number of electron   24.0000000 magnetization
 keeping initial charge density in first step

 Maximum index for non-local projection operator         3363
 Maximum index for augmentation-charges         1377 (set IRDMAX)

 First call to EWALD:  gamma=   0.177
 Maximum number of real-space cells 3x 3x 3
 Maximum number of reciprocal cells 3x 3x 3

----------------------------------------- Iteration    1(   1)  ---------------------------------------

 eigenvalue-minimisations  :    24
 total energy-change (2. order) : 0.3275396E+03  (-0.3396808E+03)
 number of electron   24.0000000 magnetization
 augmentation part    24.0000000 magnetization

 Free energy of the ion-electron system (eV)
  alpha Z        PSCENC =         2.03619615
  Ewald energy   TEWEN  =       287.31614643
  -1/2 Hartree   DENC   =     -1200.08171646
  -exchange  EXHF       =         0.00000000
  -V(xc)+E(xc)   XCENC  =        67.08874255
  PAW double counting   =       565.93115523     -553.22369639
  entropy T*S    EENTRO =        -0.00302308
  eigenvalues    EBANDS =        -6.34987352
  atomic energy  EATOM  =      1164.82564804
  free energy    TOTEN  =       327.53957894 eV

  energy without entropy =      327.54260203  energy(sigma->0) =      327.54109049

[...]

 eigenvalue-minimisations  :    24
 total energy-change (2. order) :-0.1315251E+03  (-0.1440933E+03)
 number of electron   24.0000000 magnetization
 augmentation part    24.0000000 magnetization

[...]

 Broyden mixing:
  rms(total) = 0.11542E+01    rms(broyden)= 0.11533E+01
  rms(prec ) = 0.15043E+01
  weight for this iteration     100.00

[...]

 eigenvalues of (default mixing * dielectric matrix)
  average eigenvalue GAMMA=   1.0346
  1.0346

[...]

 eigenvalue-minimisations  :    48
 total energy-change (2. order) : 0.1079859E-01  (-0.2691086E-02)
 number of electron   24.0000003 magnetization
 augmentation part     1.1811026 magnetization

[...]

 Broyden mixing:
  rms(total) = 0.90722E-04    rms(broyden)= 0.90695E-04
  rms(prec ) = 0.12060E-03
  weight for this iteration     100.00

 eigenvalues of (default mixing * dielectric matrix)
  average eigenvalue GAMMA=   2.3448
  8.2714  5.2306  3.4057  2.7964  2.4352  2.2679  1.6629  1.0445  1.0445  0.8004
  1.0515  0.9718  0.9225  0.9225

[...]

----------------------------------------- Iteration    1(  27)  ---------------------------------------

 eigenvalue-minimisations  :    33
 total energy-change (2. order) :-0.1087842E-05  (-0.4127446E-07)
 number of electron   24.0000003 magnetization
 augmentation part     1.1821409 magnetization

 Free energy of the ion-electron system (eV)
  alpha Z        PSCENC =         2.03619615
  Ewald energy   TEWEN  =       287.31614643
  -1/2 Hartree   DENC   =     -1267.98507128
  -exchange  EXHF       =         0.00000000
  -V(xc)+E(xc)   XCENC  =        71.68070210
  PAW double counting   =       742.81793114     -730.69463151
  entropy T*S    EENTRO =         0.00000000
  eigenvalues    EBANDS =      -311.80941766
  atomic energy  EATOM  =      1164.82564804
  free energy    TOTEN  =       -41.81249660 eV

  energy without entropy =      -41.81249660  energy(sigma->0) =      -41.81249660

 average (electrostatic) potential at core
  the test charge radii are     0.5201  0.6991  0.7215  0.9892
  (the norm of the test charge is              1.0000)
       1 -44.1335       2 -40.2692       3 -40.1566       4 -40.1567       5 -61.8432
       6 -79.9139       7 -83.6331       8 -93.1143

 E-fermi :  -6.0324     XC(G=0):  -1.4463     alpha+bet : -0.6005
   add alpha+bet to get absolut eigen values

 k-point   1 :       0.0000    0.0000    0.0000
  band No.  band energies     occupation
      1     -29.3855      2.00000
      2     -24.3267      2.00000
      3     -14.1204      2.00000
      4     -13.3590      2.00000
      5     -11.8359      2.00000
      6     -11.8354      2.00000
      7     -10.9986      2.00000
      8      -9.3005      2.00000
      9      -8.5104      2.00000
     10      -8.4242      2.00000
     11      -7.2421      2.00000
     12      -6.5659      2.00000
     13      -2.2921      0.00000
     14      -2.2807      0.00000
     15      -0.3833      0.00000
     16      -0.2250      0.00000
     17       0.7697      0.00000
     18       1.0413      0.00000
     19       1.0961      0.00000
     20       1.2314      0.00000
     21       1.2326      0.00000
     22       1.5081      0.00000
     23       1.8510      0.00000
     24       1.9282      0.00000

 soft charge-density along one line, spin component           1
         0         1         2         3         4         5         6         7         8         9
 total charge-density along one line

------------------------ aborting loop because EDIFF is reached ----------------------------------------

  FREE ENERGIE OF THE ION-ELECTRON SYSTEM (eV)
  free  energy   TOTEN  =       -41.812497 eV

  energy  without entropy=      -41.812497  energy(sigma->0) =      -41.812497

  FORCE on cell =-STRESS in cart. coord.  units (eV):
  Direction    XX          YY          ZZ          XY          YZ          ZX
  Alpha Z     2.03620     2.03620     2.03620
  Ewald     691.46339   -69.69545  -334.45219  -160.28846     0.00000     0.00000
  Hartree   810.95349   310.24860   146.78138   -79.24527     0.00000    -0.00001
  E(xc)     -97.62614   -98.66880   -99.16791    -0.60137     0.00000     0.00000
  Local   -1750.14154  -521.09428  -110.31665   222.67736     0.00001     0.00001
  n-local   -25.08754   -19.48251   -17.29500     4.66270     0.00025    -0.00109
  augment     6.79351     7.93543     8.73492     0.63516    -0.00004     0.00002
  Kinetic   361.20271   388.22728   403.18300    12.15084    -0.00003     0.00001
  Fock        0.00000     0.00000     0.00000     0.00000     0.00000     0.00000
  Total      -0.40592    -0.49353    -0.49625    -0.00905     0.00000     0.00000
  in kB      -0.65036    -0.79073    -0.79508    -0.01450     0.00000     0.00000

 VOLUME and BASIS-vectors are now :
  energy-cutoff  :      450.00
  volume of cell :     1000.00
      direct lattice vectors                 reciprocal lattice vectors
    10.000000000  0.000000000  0.000000000     0.100000000  0.000000000  0.000000000
     0.000000000 10.000000000  0.000000000     0.000000000  0.100000000  0.000000000
     0.000000000  0.000000000 10.000000000     0.000000000  0.000000000  0.100000000

  length of vectors
    10.000000000 10.000000000 10.000000000     0.100000000  0.100000000  0.100000000

 FORCES acting on ions
    electron-ion (+dipol)            ewald-force                    non-local-force                 convergence-correction
   -.662E+02 0.361E+02 -.794E-06   0.730E+02 -.405E+02 -.230E-08   -.687E+01 0.444E+01 0.000E+00   0.212E-03 -.143E-03 0.359E-10
   0.284E+02 -.246E+02 -.276E-06   -.305E+02 0.269E+02 -.204E-08   0.214E+01 -.228E+01 0.000E+00   -.736E-04 -.754E-05 0.171E-09
   0.109E+02 0.220E+02 -.293E+02   -.113E+02 -.237E+02 0.317E+02   0.378E+00 0.175E+01 -.246E+01   0.466E-05 -.662E-05 0.254E-04
   0.109E+02 0.220E+02 0.293E+02   -.113E+02 -.237E+02 -.317E+02   0.378E+00 0.175E+01 0.246E+01   0.466E-05 -.662E-05 -.254E-04
   0.167E+03 -.832E+02 -.707E-06   -.191E+03 0.958E+02 -.444E-08   0.241E+02 -.126E+02 0.000E+00   0.338E-03 -.661E-04 -.566E-09
   -.262E+02 -.112E+03 -.102E-03   0.231E+02 0.150E+03 -.141E-07   0.316E+01 -.377E+02 0.000E+00   0.954E-03 -.882E-03 0.111E-08
   -.195E+03 0.117E+03 -.719E-04   0.249E+03 -.145E+03 -.604E-08   -.538E+02 0.280E+02 0.000E+00   -.742E-03 0.593E-03 0.541E-09
   0.989E+02 0.391E+02 -.168E-05   -.101E+03 -.401E+02 0.167E-06   0.169E+01 0.102E+01 0.000E+00   -.121E-03 -.218E-03 0.547E-09
   0.288E+02 0.156E+02 -.178E-03   0.000E+00 -.284E-13 0.360E-15   -.288E+02 -.156E+02 0.000E+00   0.577E-03 -.737E-03 0.192E-08

 POSITION                                       TOTAL-FORCE (eV/Angst)
      4.73330      5.58579      5.33333         0.004230      0.007496      0.000000
      1.43848      6.45843      5.33333         0.004652     -0.004046      0.000000
      2.27731      4.51308      6.54283        -0.005354      0.004441     -0.004168
      2.27731      4.51308      4.12384        -0.005354      0.004441      0.004168
      6.61677      4.43569      5.33333        -0.003625      0.008090      0.000000
      3.93261      6.14206      5.33333         0.005874     -0.010314      0.000000
      7.62868      3.90899      5.33333         0.007598     -0.004560      0.000000
      2.46155      5.37666      5.33333        -0.008022     -0.005549      0.000000
    total drift:                               -0.003238     -0.001265     -0.000178

 reached required accuracy - stopping structural energy minimisation
 writing wavefunctions