 vasp.4.6.35 3Apr08 complex
 executed on             LinuxIFC date 2010.07.19  18:22:59

 INCAR:
 POTCAR:   PAW _ PBE H_h 07Sep2000
 POTCAR:   PAW _ PBE Al 04Jan2001
 POTCAR:   PAW _ PBE H_h 07Sep2000p
   VRHFIN =H: ultrasoft test

   TITEL  = PAW_PBE H_h 07Sep2000
   POMASS =    1.000; ZVAL   =    1.000    mass and valenz
   ENMAX  =  700.000; ENMIN  =  500.000 eV
   QCUT   =   -7.783; QGAM   =   15.567    optimization parameters

   Description
     l     E      TYP  RCUT    TYP  RCUT
     0   .000     23   .800
     0   .500     23   .800
     1  -.500     23   .800

 POTCAR:   PAW_PBE Al 04Jan2001
   VRHFIN =Al: s2p1

   TITEL  = PAW_PBE Al 04Jan2001
   POMASS =   26.982; ZVAL   =    3.000    mass and valenz
   ENMAX  =  240.300; ENMIN  =  180.225 eV
   QCUT   =   -4.203; QGAM   =    8.405    optimization parameters

   Description
     l     E      TYP  RCUT    TYP  RCUT
     0   .000     23  1.900
     0   .000     23  1.900
     1   .000     23  1.900
     1  1.000     23  1.900
     2   .000      7  1.900

 Optimization of the real space projectors (new method)

 maximal supplied QI-value         = 47.24
 optimisation between [QCUT,QGAM] = [ 15.12, 30.71] = [ 64.00,264.06] Ry
 Optimized for a Real-space Cutoff    0.89 Angstroem

   l    n(q)    QCUT    max X(q) W(low)/X(q) W(high)/X(q)  e(spline)
   0      8    15.118     3.731    0.24E-04    0.47E-04    0.54E-07
   0      8    15.118    31.371    0.24E-03    0.50E-03    0.21E-06
   1      8    15.118     1.978    0.99E-04    0.27E-04    0.24E-06
 Optimization of the real space projectors (new method)

 maximal supplied QI-value         = 19.84
 optimisation between [QCUT,QGAM] = [ 15.28, 30.56] = [ 65.37,261.47] Ry
 Optimized for a Real-space Cutoff    1.04 Angstroem

   l    n(q)    QCUT    max X(q) W(low)/X(q) W(high)/X(q)  e(spline)
   0      9    15.278    13.410    0.16E-04    0.30E-05    0.29E-07
   0      9    15.278   140.052    0.12E-03    0.63E-04    0.31E-06
   1      9    15.278     9.624    0.19E-04    0.41E-04    0.28E-07
   1      9    15.278    53.353    0.21E-03    0.20E-03    0.20E-06
 PAW_PBE H_h 07Sep2000                  :
 PAW_PBE Al 04Jan2001                   :

 POSCAR:  H 6   Al 2
  positions in cartesian coordinates

 ion  position               nearest neighbor table
   1  0.878  0.622  0.250-   7 1.72   8 1.72
   2  0.250  0.878  0.622-   8 1.72   7 1.72
   3  0.622  0.250  0.878-   7 1.72   8 1.72
   4  0.122  0.378  0.750-   8 1.72   7 1.72
   5  0.750  0.122  0.378-   7 1.72   8 1.72
   6  0.378  0.750  0.122-   8 1.72   7 1.72
   7  0.000  0.000  0.000-   1 1.72   4 1.72   3 1.72   6 1.72   5 1.72   2 1.72   8 3.24   8 3.24
                             8 3.24   8 3.24   8 3.24   8 3.24
   8  0.500  0.500  0.500-   4 1.72   6 1.72   2 1.72   5 1.72   3 1.72   1 1.72   7 3.24   7 3.24
                             7 3.24   7 3.24   7 3.24   7 3.24

  LATTYP: Found a trigonal (rhomboedric) cell.
 ALAT       =     4.6988904738
 COS(alpha) =     0.5517061931

  Lattice vectors:

 A1 = (   2.5688045527,   0.0000000000,   3.9345666667)
 A2 = (  -1.2844022764,   2.2246500000,   3.9345666667)
 A3 = (  -1.2844022764,  -2.2246500000,   3.9345666667)
 Subroutine PRICEL returns:
 Original cell was already a primitive cell.

Analysis of symmetry for initial positions (statically):

 Routine SETGRP: Setting up the symmetry group for a
 trigonal (rhombohedral) supercell.

 Subroutine GETGRP returns: Found 12 space group operations
 (whereof  6 operations were pure point group operations)
 out of a pool of 12 trial point group operations.

The static configuration has the point symmetry S_6 .
 The point group associated with its full space group is D_3d.

Analysis of symmetry for dynamics (positions and initial velocities):

 Subroutine DYNSYM returns: Found 12 space group operations
 (whereof  6 operations were pure point group operations)
 out of a pool of 12 trial space group operations
 (whereof  6 operations were pure point group operations)
 and found also     1 'primitive' translations

The dynamic configuration has the point symmetry S_6 .
 The point group associated with its full space group is D_3d.

 KPOINTS: 4x4x4

Automatic generation of k-mesh.

 Subroutine IBZKPT returns following result:

 Found     10 irreducible k-points:

 Following reciprocal coordinates:
            Coordinates               Weight
  0.125000  0.125000  0.125000      2.000000
  0.375000  0.125000  0.125000      6.000000
 -0.375000  0.125000  0.125000      6.000000
 -0.125000  0.125000  0.125000      6.000000
  0.375000  0.375000  0.125000      6.000000
 -0.375000  0.375000  0.125000     12.000000
 -0.125000  0.375000  0.125000     12.000000
 -0.375000 -0.375000  0.125000      6.000000
  0.375000  0.375000  0.375000      2.000000
 -0.375000  0.375000  0.375000      6.000000

 Following cartesian coordinates:
            Coordinates               Weight
  0.000000  0.000000  0.031770      2.000000
  0.064881  0.000000  0.052949      6.000000
 -0.129762  0.000000 -0.010590      6.000000
 -0.064881  0.000000  0.010590      6.000000
  0.032441  0.056189  0.074129      6.000000
 -0.162203  0.056189  0.010590     12.000000
 -0.097322  0.056189  0.031770     12.000000
 -0.064881 -0.112377 -0.052949      6.000000
  0.000000  0.000000  0.095309      2.000000
 -0.194643  0.000000  0.031770      6.000000

 I would recommend the setting:
   dimension x,y,z NGX =    46 NGY =   46 NGZ =   46
 SYSTEM =  idruro di alluminio
 POSCAR =   H 6   Al 2

 Startparameter for this run:
   NWRITE =      2    write-flag & timer
   PREC   = acc       medium, high low
   ISTART =      0    job   : 0-new  1-cont  2-samecut
   ICHARG =      2    charge: 1-file 2-atom 10-const
   ISPIN  =      1    spin polarized calculation?
   LNONCOLLINEAR =      F non collinear calculations
   LSORBIT =      F    spin-orbit coupling
   INIWAV =      1    electr: 0-lowe 1-rand  2-diag
   LASPH  =      F    aspherical Exc in radial PAW
   METAGGA=      F    non-selfconsistent MetaGGA calc.

 Electronic Relaxation 1
   ENCUT  =  900.0 eV  66.15 Ry    8.13 a.u.  11.49 11.49 11.49*2*pi/ulx,y,z
   ENINI  =  900.0     initial cutoff
   ENAUG  = 1000.0 eV  augmentation charge cutoff
   NELM   =     60;   NELMIN=  2; NELMDL=  0     # of ELM steps
   EDIFF  = 0.1E-08   stopping-criterion for ELM
   LREAL  =      T    real-space projection
   LCOMPAT=      F    compatible to vasp.4.4
   LREAL_COMPAT= F    compatible to vasp.4.5.1-3
   GGA_COMPAT  = T    GGA compatible to vasp.4.4-vasp.4.6
   LMAXPAW     = -100 max onsite density
   LMAXMIX     =    2 max onsite mixed and CHGCAR
   VOSKOWN=      0    Vosko Wilk Nusair interpolation
   ROPT   =   -0.00025  -0.00025
 Ionic relaxation
   EDIFFG = 0.1E-06   stopping-criterion for IOM
   NSW    =     50    number of steps for IOM
   NBLOCK =      1;   KBLOCK =     50    inner block; outer block
   IBRION =      2    ionic relax: 0-MD 1-quasi-New 2-CG
   NFREE  =      1    steps in history (QN), initial steepest desc. (CG)
   ISIF   =      3    stress and relaxation
   IWAVPR =     11    prediction:  0-non 1-charg 2-wave 3-comb
   ISYM   =      2    0-nonsym 1-usesym 2-fastsym
   LCORR  =      T    Harris-Foulkes like correction to forces

   POTIM  =   0.50    time-step for ionic-motion
   TEIN   =    0.0    initial temperature
   TEBEG  =    0.0;   TEEND  =   0.0 temperature during run
   SMASS  =  -3.00    Nose mass-parameter (am)
   estimated Nose-frequenzy (Omega)   =  0.10E-29 period in steps =****** mass=  -0.505E-27a.u.
   NPACO  =    256;   APACO  = 16.0  distance and # of slots for P.C.
   PSTRESS=    0.0 pullay stress

  Mass of Ions in am
   POMASS =   1.00 26.98
  Ionic Valenz
   ZVAL   =   1.00  3.00
  Atomic Wigner-Seitz radii
   NELECT =      12.0000    total number of electrons
   NUPDOWN=      -1.0000    fix difference up-down

 DOS related values:
   EMIN   =  10.00;   EMAX   =-10.00  energy-range for DOS
   ISMEAR =     0;   SIGMA  =   0.10  broadening in eV -4-tet -1-fermi 0-gaus

 Electronic relaxation 2 (details)
   IALGO  =     48    algorithm
   LDIAG  =      T    sub-space diagonalisation
   IMIX   =      4    mixing-type and parameters
     AMIX     =   0.40;   BMIX     =  1.00
     AMIX_MAG =   1.60;   BMIX_MAG =  1.00
     AMIN     =   0.10
     WC   =   100.;   INIMIX=   1;  MIXPRE=   1

 Intra band minimization:
   WEIMIN = 0.0010     energy-eigenvalue tresh-hold
   EBREAK =  0.23E-10  absolut break condition
   DEPER  =   0.30     relativ break condition

   TIME   =   0.10     timestep for ELM

  volume/ion in A,a.u.               =       8.43        56.90
  Fermi-wavevector in a.u.,eV,Ry     =   0.920729 11.534217  0.847741

 Second variation
   LSECVAR=     F    do a second variation

 Write flags
   LWAVE  =      T    write WAVECAR
   LCHARG =      T    write CHGCAR
   LVTOT  =      F    write LOCPOT, local potential
   LELF   =      F    write electronic localiz. function (ELF)
   LORBIT =      0    0 simple, 1 ext, 2 COOP (PROOUT)

 Dipole corrections
   IDIPOL =      0    1-x, 2-y, 3-z
   LDIPOL =      F    correct potential

 conjugate gradient relaxation of ions
 charge density will be updated during run
 non-spin polarized calculation
 RMM-DIIS sequential band-by-band
 performe sub-space diagonalisation
    before iterative eigenvector-optimisation
 modified Broyden-mixing scheme, WC =      100.0
 initial mixing is a Kerker type mixing with AMIX =  0.4000 and BMIX =      1.0000
 Hartree-type preconditioning will be used
 using additional bands           10
 real space projection scheme for non local part
 use partial core corrections
 calculate Harris-corrections to forces
   (improved forces if not selfconsistent)
 use gradient corrections
 use of overlap-Matrix (Vanderbilt PP)
 Gauss-broadening in eV      SIGMA  =   0.10

  energy-cutoff  :      900.00
  volume of cell :       67.45
      direct lattice vectors                 reciprocal lattice vectors
     2.568804553  0.000000000  3.934566667     0.259524091  0.000000000  0.084719198
    -1.284402276  2.224650000  3.934566667    -0.129762046  0.224754456  0.084719198
    -1.284402276 -2.224650000  3.934566667    -0.129762046 -0.224754456  0.084719198

  length of vectors
     4.698890474  4.698890474  4.698890474     0.273002008  0.273002008  0.273002008

 k-points in units of 2pi/SCALE and weight: 4x4x4
   0.00000000  0.00000000  0.03176970       0.031
   0.06488102  0.00000000  0.05294950       0.094
  -0.12976205  0.00000000 -0.01058990       0.094
  -0.06488102  0.00000000  0.01058990       0.094
   0.03244051  0.05618861  0.07412930       0.094
  -0.16220256  0.05618861  0.01058990       0.188
  -0.09732153  0.05618861  0.03176970       0.188
  -0.06488102 -0.11237723 -0.05294950       0.094
   0.00000000  0.00000000  0.09530910       0.031
  -0.19464307  0.00000000  0.03176970       0.094

 k-points in reciprocal lattice and weights: 4x4x4
   0.12500000  0.12500000  0.12500000       0.031
   0.37500000  0.12500000  0.12500000       0.094
  -0.37500000  0.12500000  0.12500000       0.094
  -0.12500000  0.12500000  0.12500000       0.094
   0.37500000  0.37500000  0.12500000       0.094
  -0.37500000  0.37500000  0.12500000       0.188
[...]
  the test charge radii are     0.4325  1.0406
  (the norm of the test charge is              1.0000)
       1 -36.5200       2 -36.5200       3 -36.5200       4 -36.5200       5 -36.5200
       6 -36.5200       7 -77.6494       8 -77.6494

 E-fermi :   1.3586     XC(G=0):  -8.7612     alpha+bet : -9.6655
   add alpha+bet to get absolut eigen values

 k-point   1 :       0.1250    0.1250    0.1250
  band No.  band energies     occupation
      1      -7.6345      2.00000
      2      -2.0969      2.00000
      3      -0.8490      2.00000
      4      -0.8490      2.00000
      5       0.7015      2.00000
      6       0.7015      2.00000
      7       3.7640      0.00000
      8       6.9177      0.00000
      9       6.9177      0.00000
     10       7.0228      0.00000
     11       7.7607      0.00000
     12       8.5721      0.00000
     13       8.5721      0.00000
     14      10.7662      0.00000
     15      12.7622      0.00000
     16      16.3184      0.00000

[...]

 soft charge-density along one line, spin component           1
         0         1         2         3         4         5         6         7         8         9
 total charge-density along one line

------------------------ aborting loop because EDIFF is reached ----------------------------------------

  FREE ENERGIE OF THE ION-ELECTRON SYSTEM (eV)
  free  energy   TOTEN  =       -27.790817 eV

  energy  without entropy=      -27.790817  energy(sigma->0) =      -27.790817

  FORCE on cell =-STRESS in cart. coord.  units (eV/reduce length):
  Direction    X        Y        Z        XY       YZ       ZX
  Alpha Z      2.18      2.18      2.18
  Ewald      -63.77    -63.77    -61.63      0.00      0.00      0.00
  Hartree      7.78      7.78      8.87      0.00      0.00      0.00
  E(xc)      -35.67    -35.67    -35.64      0.00      0.00      0.00
  Local      -16.98    -16.98    -20.41      0.00      0.00      0.00
  n-local     13.79     14.72     14.25      0.35      0.17     -0.38
  augment     -1.28     -1.28     -1.28      0.00      0.00      0.00
  Kinetic     91.84     96.00     94.01     -0.59     -3.57     -1.32
  Total        0.45      0.45      0.35      0.00      0.00      0.00
  in kB       10.73     10.73      8.35      0.00      0.00      0.00

 VOLUME and BASIS-vectors are now :
  energy-cutoff  :      900.00
  volume of cell :       67.45
      direct lattice vectors                 reciprocal lattice vectors
     2.568804553  0.000000000  3.934566667     0.259524091  0.000000000  0.084719198
    -1.284402276  2.224650000  3.934566667    -0.129762046  0.224754456  0.084719198
    -1.284402276 -2.224650000  3.934566667    -0.129762046 -0.224754456  0.084719198

[...]

 FORCES acting on ions
    electron-ion (+dipol)            ewald-force                    non-local-force                 convergence-correction
   -.492E+01 0.284E+01 -.422E-10   0.584E+01 -.337E+01 -.954E-10   -.887E+00 0.512E+00 0.694E-17   -.129E-06 0.748E-07 -.561E-15
   -.204E-09 -.569E+01 0.761E-10   0.196E-10 0.674E+01 0.338E-10   0.347E-17 -.102E+01 0.000E+00   0.104E-07 -.320E-06 -.743E-07
   0.492E+01 0.284E+01 -.171E-09   -.584E+01 -.337E+01 -.357E-10   0.887E+00 0.512E+00 0.139E-16   0.282E-06 0.151E-06 0.743E-07
   0.492E+01 -.284E+01 0.407E-10   -.584E+01 0.337E+01 -.229E-10   0.887E+00 -.512E+00 0.347E-17   0.129E-06 -.748E-07 0.464E-16
   0.204E-09 0.569E+01 -.758E-10   -.310E-11 -.674E+01 0.402E-10   0.000E+00 0.102E+01 0.000E+00   -.104E-07 0.320E-06 0.743E-07
   -.492E+01 -.284E+01 0.171E-09   0.584E+01 0.337E+01 0.251E-11   -.887E+00 -.512E+00 -.139E-16   -.282E-06 -.151E-06 -.743E-07
   -.305E-12 0.283E-13 -.458E-12   -.359E-10 0.354E-14 -.488E-10   -.455E-23 0.827E-24 0.000E+00   0.389E-16 -.901E-17 0.334E-15
   -.127E-09 -.361E-12 -.130E-09   0.118E-09 -.550E-14 0.126E-09   0.114E-23 0.620E-24 -.827E-24   -.779E-16 0.428E-15 -.102E-14
   -.128E-09 0.168E-12 -.132E-09   0.365E-15 0.702E-15 -.153E-14   -.111E-15 0.145E-23 0.104E-16   -.312E-16 0.264E-15 -.144E-14

 POSITION                                       TOTAL-FORCE (eV/Angst)
      1.13541      0.82757      6.88549         0.029614     -0.017098      0.000000
     -1.28440      0.56951      6.88549         0.000000      0.034196      0.000000
      0.14899     -1.39708      6.88549        -0.029614     -0.017098      0.000000
     -1.13541     -0.82757      4.91821        -0.029614      0.017098      0.000000
      1.28440     -0.56951      4.91821         0.000000     -0.034196      0.000000
     -0.14899      1.39708      4.91821         0.029614      0.017098      0.000000
      0.00000      0.00000      0.00000         0.000000      0.000000      0.000000
      0.00000      0.00000      5.90185         0.000000      0.000000      0.000000
    total drift:                                0.000000      0.000000      0.000000

[...]

 d Force = 0.2301254E-03[ 0.121E-03, 0.339E-03]  d Energy = 0.2378669E-02-0.215E-02
 d Force = 0.6679127E-01[ 0.667E-01, 0.669E-01]  d Ewald  =-0.4101078E+00 0.477E+00

[...]

 Steepest descent step on ions:
 trial-energy change:   -0.002379  1 .order   -0.002440   -0.003543   -0.001337
  (g-gl).g = 0.354E-02      g.g   = 0.354E-02  gl.gl    = 0.000E+00
 g(Force)  = 0.338E-03   g(Stress)= 0.320E-02 ortho     = 0.000E+00
 gamma     =   0.00000
 trial     =   1.00000
 opt step  =   1.88640  (harmonic =   1.60611) maximal distance =0.00311198
 next E    =   -27.793746   (d E  =  -0.00293)

[...]

 d Force = 0.2169452E-04[-0.637E-04, 0.107E-03]  d Energy = 0.3761173E-03-0.354E-03
 d Force = 0.5895565E-01[ 0.588E-01, 0.591E-01]  d Ewald  =-0.3618445E+00 0.421E+00

[...]

 d Force = 0.1053295E-04[ 0.547E-05, 0.156E-04]  d Energy = 0.5369151E-04-0.432E-04
 d Force =-0.1441681E-01[-0.144E-01,-0.144E-01]  d Ewald  = 0.8874768E-01-0.103E+00

[...]

 d Force = 0.1981793E-05[ 0.206E-05, 0.191E-05]  d Energy = 0.1305506E-04-0.111E-04
 d Force =-0.5027909E-02[-0.503E-02,-0.503E-02]  d Ewald  =-0.7897511E-02 0.287E-02

[...]

 Conjugate gradient step on ions:
 trial-energy change:   -0.000013  1 .order   -0.000013   -0.000014   -0.000012
  (g-gl).g = 0.260E-04      g.g   = 0.125E-04  gl.gl    = 0.354E-02
 g(Force)  = 0.186E-05   g(Stress)= 0.107E-04 ortho     =-0.135E-04
 gamma     =   0.00733
 trial     =   1.13374
 opt step  =   4.17908  (harmonic =   7.07410) maximal distance =0.00046117
 next E    =   -27.793657   (d E  =  -0.00003)

[...]

 Conjugate gradient step on ions:
 trial-energy change:   -0.000009  1 .order   -0.000009   -0.000009   -0.000009
  (g-gl).g = 0.406E-05      g.g   = 0.466E-05  gl.gl    = 0.125E-04
 g(Force)  = 0.324E-05   g(Stress)= 0.142E-05 ortho     = 0.770E-06
 gamma     =   0.32444
 trial     =   1.92215
 opt step  =   7.68861  (harmonic =  54.40579) maximal distance =0.00151533
 next E    =   -27.793792   (d E  =  -0.00013)

[...]

 d Force = 0.5044567E-04[ 0.509E-04, 0.500E-04]  d Energy =-0.1481380E-04 0.653E-04
 d Force =-0.9115168E-01[-0.910E-01,-0.913E-01]  d Ewald  =-0.2041790E+00 0.113E+00

[...]

 d Force =-0.2900154E-04[-0.285E-04,-0.295E-04]  d Energy = 0.1563792E-04-0.446E-04
 d Force = 0.5279010E-01[ 0.528E-01, 0.528E-01]  d Ewald  = 0.1183714E+00-0.656E-01

[...]

 d Force =-0.9114343E-05[-0.915E-05,-0.908E-05]  d Energy = 0.2964408E-05-0.121E-04
 d Force = 0.1683272E-01[ 0.168E-01, 0.168E-01]  d Ewald  = 0.3773125E-01-0.209E-01

[...]

 Conjugate gradient step on ions:
 trial-energy change:   -0.000007  1 .order   -0.000007   -0.000008   -0.000006
  (g-gl).g = 0.913E-05      g.g   = 0.110E-04  gl.gl    = 0.466E-05
 g(Force)  = 0.381E-05   g(Stress)= 0.714E-05 ortho     = 0.891E-06
 gamma     =   1.96035
 trial     =   0.59555
 opt step  =   2.38220  (harmonic =   2.93652) maximal distance =0.00133757
 next E    =   -27.793706   (d E  =  -0.00002)

[...]

 d Force = 0.1096393E-04[ 0.455E-05, 0.174E-04]  d Energy = 0.1306012E-04-0.210E-05
 d Force =-0.4020336E-01[-0.402E-01,-0.402E-01]  d Ewald  =-0.4021404E-01 0.107E-04

[...]

 d Force = 0.7712990E-06[-0.142E-06, 0.168E-05]  d Energy = 0.1476670E-05-0.705E-06
 d Force =-0.1486409E-01[-0.149E-01,-0.149E-01]  d Ewald  =-0.1486757E-01 0.348E-05

[...]

 d Force =-0.8629958E-07[-0.110E-06,-0.628E-07]  d Energy =-0.2176949E-06 0.131E-06
 d Force =-0.6582967E-02[-0.658E-02,-0.658E-02]  d Ewald  =-0.1575101E-01 0.917E-02

[...]

 Conjugate gradient step on ions:
 trial-energy change:    0.000000  1 .order    0.000000   -0.000001    0.000001
  (g-gl).g = 0.302E-05      g.g   = 0.110E-05  gl.gl    = 0.110E-04
 g(Force)  = 0.117E-08   g(Stress)= 0.110E-05 ortho     =-0.108E-06
 gamma     =   0.27523
 trial     =   1.08504
 opt step  =   0.35088  (harmonic =   0.64674) maximal distance =0.00005315
 next E    =   -27.793709   (d E  =   0.00000)

[...]

 eigenvalue-minimisations  :    57
 total energy-change (2. order) : 0.6464802E-09  ( 0.0000000E+00)
 number of electron   12.0000000 magnetization
 augmentation part    -0.0197025 magnetization

[...]

 d Force = 0.6271398E-07[ 0.511E-07, 0.743E-07]  d Energy = 0.5150942E-06-0.452E-06
 d Force = 0.4453765E-02[ 0.445E-02, 0.445E-02]  d Ewald  = 0.1065701E-01-0.620E-02

[...]

 d Force = 0.4062061E-08[ 0.653E-08, 0.160E-08]  d Energy =-0.3174396E-06 0.322E-06
 d Force = 0.1389588E-03[ 0.139E-03, 0.139E-03]  d Ewald  = 0.5373245E-02-0.523E-02

[...]

 Steepest descent step on ions:
 trial-energy change:    0.000000  1 .order    0.000000   -0.000001    0.000001
  (g-gl).g = 0.125E-05      g.g   = 0.770E-06  gl.gl    = 0.110E-05
 g(Force)  = 0.170E-08   g(Stress)= 0.768E-06 ortho     =-0.499E-06
 gamma     =   0.00000
 trial     =   0.93821
 opt step  =   0.48737  (harmonic =   0.48737) maximal distance =0.00000180
 next E    =   -27.793709   (d E  =   0.00000)

[...]

 d Force =-0.2563110E-08[-0.199E-08,-0.314E-08]  d Energy = 0.1901508E-06-0.193E-06
 d Force =-0.6677984E-04[-0.668E-04,-0.668E-04]  d Ewald  =-0.2582111E-02 0.252E-02

[...]

 real space projection operators:
  max/ min on nodes  :   2017.17   2017.17

[...]

 eigenvalue-minimisations  :   129
 total energy-change (2. order) :-0.2448644E-08  (-0.2007214E-11)
 number of electron   12.0000000 magnetization
 augmentation part    -0.0197019 magnetization

[...]

 eigenvalue-minimisations  :    69
 total energy-change (2. order) : 0.1036284E-08  (-0.9356266E-12)
 number of electron   12.0000000 magnetization
 augmentation part    -0.0197019 magnetization

 Broyden mixing:
  rms(total) = 0.17688E-06    rms(broyden)= 0.17688E-06
  rms(prec ) = 0.46602E-06
  weight for this iteration     100.00

 eigenvalues of (default mixing * dielectric matrix)
  average eigenvalue GAMMA=   1.7881
  2.8024  2.4460  0.9519  0.9519

[...]

----------------------------------------- Iteration   20(   6)  ---------------------------------------

 eigenvalue-minimisations  :    37
 total energy-change (2. order) :-0.1216449E-09  ( 0.0000000E+00)
 number of electron   12.0000000 magnetization
 augmentation part    -0.0197019 magnetization

 Free energy of the ion-electron system (eV)
  alpha Z        PSCENC =         2.15357760
  Ewald energy   TEWEN  =      -188.18674399
  -1/2 Hartree   DENC   =       -24.55175446
  -V(xc)+E(xc)   XCENC  =       -35.22394345
  PAW double counting   =        76.44931396      -12.57700690
  entropy T*S    EENTRO =         0.00000000
  eigenvalues    EBANDS =       -27.89138094
  atomic energy  EATOM  =       182.03422908
  free energy    TOTEN  =       -27.79370909 eV

  energy without entropy =      -27.79370909  energy(sigma->0) =      -27.79370909

 average (electrostatic) potential at core
  the test charge radii are     0.4325  1.0406
  (the norm of the test charge is              1.0000)
       1 -36.5859       2 -36.5859       3 -36.5859       4 -36.5859       5 -36.5859
       6 -36.5859       7 -77.7794       8 -77.7794

 E-fermi :   1.2688     XC(G=0):  -8.7100     alpha+bet : -9.5272
   add alpha+bet to get absolut eigen values

[...]

 k-point  10 :      -0.3750    0.3750    0.3750
  band No.  band energies     occupation
      1      -5.5248      2.00000
      2      -4.9800      2.00000
      3      -2.5728      2.00000
      4      -1.4566      2.00000
      5      -0.2463      2.00000
      6       0.5075      2.00000
      7       6.2646      0.00000
      8       6.6909      0.00000
      9       7.8875      0.00000
     10       8.6940      0.00000
     11       9.2651      0.00000
     12      11.4141      0.00000
     13      11.8293      0.00000
     14      12.0249      0.00000
     15      12.1389      0.00000
     16      16.3277      0.00000

 soft charge-density along one line, spin component           1
         0         1         2         3         4         5         6         7         8         9
 total charge-density along one line

------------------------ aborting loop because EDIFF is reached ----------------------------------------

 d Force =-0.8121295E-09[-0.688E-09,-0.936E-09]  d Energy = 0.7126692E-07-0.721E-07
 d Force =-0.3142850E-04[-0.314E-04,-0.314E-04]  d Ewald  =-0.1215201E-02 0.118E-02

  FREE ENERGIE OF THE ION-ELECTRON SYSTEM (eV)
  free  energy   TOTEN  =       -27.793709 eV

  energy  without entropy=      -27.793709  energy(sigma->0) =      -27.793709

  FORCE on cell =-STRESS in cart. coord.  units (eV/reduce length):
  Direction    X        Y        Z        XY       YZ       ZX
  Alpha Z      2.15      2.15      2.15
  Ewald      -63.34    -63.34    -61.50      0.00      0.00      0.00
  Hartree      7.82      7.82      8.92      0.00      0.00      0.00
  E(xc)      -35.54    -35.54    -35.51      0.00      0.00      0.00
  Local      -17.30    -17.30    -20.45      0.00      0.00      0.00
  n-local     13.71     14.63     14.14      0.35      0.16     -0.38
  augment     -1.28     -1.28     -1.28      0.00      0.00      0.00
  Kinetic     91.26     95.41     93.55     -0.58     -3.53     -1.31
  Total        0.01      0.01      0.01      0.00      0.00      0.00
  in kB        0.15      0.15      0.23      0.00      0.00      0.00

 VOLUME and BASIS-vectors are now :
  energy-cutoff  :      900.00
  volume of cell :       68.43
      direct lattice vectors                 reciprocal lattice vectors
     2.583775783  0.000000000  3.945557453     0.258020325  0.000000000  0.084483204
    -1.291887892  2.237615466  3.945557453    -0.129010162  0.223452156  0.084483204
    -1.291887892 -2.237615466  3.945557453    -0.129010162 -0.223452156  0.084483204

  length of vectors
     4.716282531  4.716282531  4.716282531     0.271499355  0.271499355  0.271499355

 FORCES acting on ions
    electron-ion (+dipol)            ewald-force                    non-local-force                 convergence-correction
   -.491E+01 0.283E+01 -.418E-10   0.578E+01 -.334E+01 -.944E-10   -.876E+00 0.506E+00 -.210E-14   0.255E-06 -.147E-06 0.219E-14
   -.198E-09 -.566E+01 0.131E-09   0.192E-10 0.668E+01 0.337E-10   0.000E+00 -.101E+01 0.000E+00   0.104E-07 0.123E-06 -.747E-07
   0.491E+01 0.283E+01 -.226E-09   -.578E+01 -.334E+01 -.352E-10   0.876E+00 0.506E+00 0.210E-14   -.101E-06 -.705E-07 0.747E-07
   0.491E+01 -.283E+01 0.406E-10   -.578E+01 0.334E+01 -.224E-10   0.876E+00 -.506E+00 0.209E-14   -.255E-06 0.147E-06 -.212E-14
   0.198E-09 0.566E+01 -.131E-09   -.329E-11 -.668E+01 0.399E-10   0.694E-17 0.101E+01 0.000E+00   -.104E-07 -.123E-06 0.747E-07
   -.491E+01 -.283E+01 0.226E-09   0.578E+01 0.334E+01 0.251E-11   -.876E+00 -.506E+00 -.210E-14   0.101E-06 0.705E-07 -.747E-07
   -.302E-12 0.288E-13 -.450E-12   -.357E-10 -.365E-14 -.479E-10   -.207E-24 -.207E-24 0.310E-24   -.388E-16 -.509E-15 0.912E-16
   -.126E-09 -.358E-12 -.127E-09   0.117E-09 0.119E-15 0.124E-09   0.284E-24 0.103E-24 -.517E-24   -.212E-15 0.356E-15 -.289E-15
   -.127E-09 0.357E-12 -.128E-09   -.164E-14 -.175E-14 -.206E-14   0.222E-15 0.111E-15 -.121E-16   -.513E-15 -.284E-15 -.106E-14

 POSITION                                       TOTAL-FORCE (eV/Angst)
      1.14064      0.83320      6.90473         0.000127     -0.000073      0.000000
     -1.29189      0.57122      6.90473         0.000000      0.000146      0.000000
      0.15125     -1.40442      6.90473        -0.000127     -0.000073      0.000000
     -1.14064     -0.83320      4.93195        -0.000127      0.000073      0.000000
      1.29189     -0.57122      4.93195         0.000000     -0.000146      0.000000
     -0.15125      1.40442      4.93195         0.000127      0.000073      0.000000
      0.00000      0.00000      0.00000         0.000000      0.000000      0.000000
      0.00000      0.00000      5.91834         0.000000      0.000000      0.000000
    total drift:                                0.000000      0.000000      0.000000

 reached required accuracy - stopping structural energy minimisation
 writing wavefunctions