 vasp.4.6.35 3Apr08 complex
 executed on             LinuxIFC date 2010.07.27  16:02:37

 INCAR:
 POTCAR:   PAW_PBE H_h 07Sep2000
 POTCAR:   PAW_PBE Al 04Jan2001
 POTCAR:   PAW_PBE H_h 07Sep2000
   VRHFIN =H: ultrasoft test

   TITEL  = PAW_PBE H_h 07Sep2000
   POMASS =    1.000; ZVAL   =    1.000    mass and valenz
   ENMAX  =  700.000; ENMIN  =  500.000 eV
   QCUT   =   -7.783; QGAM   =   15.567    optimization parameters

   Description
     l     E      TYP  RCUT    TYP  RCUT
     0   .000     23   .800
     0   .500     23   .800
     1  -.500     23   .800

 POTCAR:   PAW_PBE Al 04Jan2001
   VRHFIN =Al: s2p1

   TITEL  = PAW_PBE Al 04Jan2001
   POMASS =   26.982; ZVAL   =    3.000    mass and valenz
   ENMAX  =  240.300; ENMIN  =  180.225 eV
   QCUT   =   -4.203; QGAM   =    8.405    optimization parameters

   Description
     l     E      TYP  RCUT    TYP  RCUT
     0   .000     23  1.900
     0   .000     23  1.900
     1   .000     23  1.900
     1  1.000     23  1.900
     2   .000      7  1.900

 Optimization of the real space projectors (new method)

 maximal supplied QI-value         = 47.24
 optimisation between [QCUT,QGAM] = [ 12.76, 25.98] = [ 45.56,189.06] Ry
 Optimized for a Real-space Cutoff    1.12 Angstroem

   l    n(q)    QCUT    max X(q) W(low)/X(q) W(high)/X(q)  e(spline)
   0      9    12.756     3.731    0.18E-04    0.26E-05    0.14E-06
   0      9    12.756    31.371    0.18E-03    0.15E-04    0.51E-06
   1      8    12.756     1.978    0.21E-03    0.53E-03    0.54E-06
 Optimization of the real space projectors (new method)

 maximal supplied QI-value         = 19.84
 optimisation between [QCUT,QGAM] = [ 12.90, 25.99] = [ 46.58,189.20] Ry
 Optimized for a Real-space Cutoff    1.05 Angstroem

   l    n(q)    QCUT    max X(q) W(low)/X(q) W(high)/X(q)  e(spline)
   0      8    12.897    13.410    0.17E-04    0.18E-05    0.24E-07
   0      8    12.897   140.052    0.22E-03    0.11E-03    0.29E-06
   1      8    12.897     9.624    0.48E-04    0.71E-04    0.38E-07
   1      8    12.897    53.353    0.56E-04    0.37E-03    0.17E-06
 PAW_PBE H_h 07Sep2000                  :
 PAW_PBE Al 04Jan2001                   :

 POSCAR:  H 6   Al 2
  positions in cartesian coordinates

 ion  position               nearest neighbor table
   1  0.884  0.616  0.250-   7 1.72   8 1.72
   2  0.250  0.884  0.616-   8 1.72   7 1.72
   3  0.616  0.250  0.884-   8 1.72   7 1.72
   4  0.116  0.384  0.750-   7 1.72   8 1.72
   5  0.750  0.116  0.384-   8 1.72   7 1.72
   6  0.384  0.750  0.116-   8 1.72   7 1.72
   7  0.000  0.000  0.000-   4 1.72   1 1.72   6 1.72   3 1.72   5 1.72   2 1.72   8 3.23   8 3.23
                             8 3.23   8 3.23   8 3.23   8 3.23
   8  0.500  0.500  0.500-   3 1.72   2 1.72   6 1.72   5 1.72   1 1.72   4 1.72   7 3.23   7 3.23
                             7 3.23   7 3.23   7 3.23   7 3.23

  LATTYP: Found a trigonal (rhomboedric) cell.
 ALAT       =     4.6954103261
 COS(alpha) =     0.5540071596

  Lattice vectors:

 A1 = (   2.5603059450,   0.0000000000,   3.9359511680)
 A2 = (  -1.2801529730,   2.2172899900,   3.9359511680)
 A3 = (  -1.2801529730,  -2.2172899900,   3.9359511680)
 Subroutine PRICEL returns:
 Original cell was already a primitive cell.

Analysis of symmetry for initial positions (statically):

 Routine SETGRP: Setting up the symmetry group for a
 trigonal (rhombohedral) supercell.

 Subroutine GETGRP returns: Found 12 space group operations
 (whereof  6 operations were pure point group operations)
 out of a pool of 12 trial point group operations.

The static configuration has the point symmetry S_6 .
 The point group associated with its full space group is D_3d.

Analysis of symmetry for dynamics (positions and initial velocities):

 Subroutine DYNSYM returns: Found 12 space group operations
 (whereof  6 operations were pure point group operations)
 out of a pool of 12 trial space group operations
 (whereof  6 operations were pure point group operations)
 and found also     1 'primitive' translations

The dynamic configuration has the point symmetry S_6 .
 The point group associated with its full space group is D_3d.

 KPOINTS: 4x4x4

Automatic generation of k-mesh.

 Subroutine IBZKPT returns following result:

 Found     10 irreducible k-points:

 Following reciprocal coordinates:
            Coordinates               Weight
  0.125000  0.125000  0.125000      2.000000
  0.375000  0.125000  0.125000      6.000000
 -0.375000  0.125000  0.125000      6.000000
 -0.125000  0.125000  0.125000      6.000000
  0.375000  0.375000  0.125000      6.000000
 -0.375000  0.375000  0.125000     12.000000
 -0.125000  0.375000  0.125000     12.000000
 -0.375000 -0.375000  0.125000      6.000000
  0.375000  0.375000  0.375000      2.000000
 -0.375000  0.375000  0.375000      6.000000

 Following cartesian coordinates:
            Coordinates               Weight
  0.000000  0.000000  0.031759      2.000000
  0.065096  0.000000  0.052931      6.000000
 -0.130193  0.000000 -0.010586      6.000000
 -0.065096  0.000000  0.010586      6.000000
  0.032548  0.056375  0.074103      6.000000
 -0.162741  0.056375  0.010586     12.000000
 -0.097645  0.056375  0.031759     12.000000
 -0.065096 -0.112750 -0.052931      6.000000
  0.000000  0.000000  0.095276      2.000000
 -0.195289  0.000000  0.031759      6.000000

 I would recommend the setting:
   dimension x,y,z NGX =    39 NGY =   39 NGZ =   39
 SYSTEM =  idruro di alluminio
 POSCAR =   H 6   Al 2

 Startparameter for this run:
   NWRITE =      2    write-flag & timer
   PREC   = acc       medium, high low
   ISTART =      0    job   : 0-new  1-cont  2-samecut
   ICHARG =      2    charge: 1-file 2-atom 10-const
   ISPIN  =      1    spin polarized calculation?
   LNONCOLLINEAR =      F non collinear calculations
   LSORBIT =      F    spin-orbit coupling
   INIWAV =      1    electr: 0-lowe 1-rand  2-diag
   LASPH  =      F    aspherical Exc in radial PAW
   METAGGA=      F    non-selfconsistent MetaGGA calc.

 Electronic Relaxation 1
   ENCUT  =  650.0 eV  47.77 Ry    6.91 a.u.   9.76  9.76  9.76*2*pi/ulx,y,z
   ENINI  =  650.0     initial cutoff
   ENAUG  = 1000.0 eV  augmentation charge cutoff
   NELM   =     60;   NELMIN=  2; NELMDL=-12     # of ELM steps
   EDIFF  = 0.1E-08   stopping-criterion for ELM
   LREAL  =      T    real-space projection
   LCOMPAT=      F    compatible to vasp.4.4
   LREAL_COMPAT= F    compatible to vasp.4.5.1-3
   GGA_COMPAT  = T    GGA compatible to vasp.4.4-vasp.4.6
   LMAXPAW     = -100 max onsite density
   LMAXMIX     =    2 max onsite mixed and CHGCAR
   VOSKOWN=      0    Vosko Wilk Nusair interpolation
   ROPT   =   -0.00025  -0.00025
 Ionic relaxation
   EDIFFG = 0.1E-06   stopping-criterion for IOM
   NSW    =     97    number of steps for IOM
   NBLOCK =      1;   KBLOCK =      1    inner block; outer block
   IBRION =      5    ionic relax: 0-MD 1-quasi-New 2-CG
   NFREE  =      2    steps in history (QN), initial steepest desc. (CG)
   ISIF   =      3    stress and relaxation
   IWAVPR =     11    prediction:  0-non 1-charg 2-wave 3-comb
   ISYM   =      2    0-nonsym 1-usesym 2-fastsym
   LCORR  =      T    Harris-Foulkes like correction to forces

   POTIM  =   0.50    time-step for ionic-motion
   TEIN   =    0.0    initial temperature
   TEBEG  =    0.0;   TEEND  =   0.0 temperature during run
   SMASS  =  -3.00    Nose mass-parameter (am)
   estimated Nose-frequenzy (Omega)   =  0.10E-29 period in steps =****** mass=  -0.504E-27a.u.
   NPACO  =    256;   APACO  = 16.0  distance and # of slots for P.C.
   PSTRESS=    0.0 pullay stress

  Mass of Ions in am
   POMASS =   1.00 26.98
  Ionic Valenz
   ZVAL   =   1.00  3.00
  Atomic Wigner-Seitz radii
   NELECT =      12.0000    total number of electrons
   NUPDOWN=      -1.0000    fix difference up-down

 DOS related values:
   EMIN   =  10.00;   EMAX   =-10.00  energy-range for DOS
   ISMEAR =     0;   SIGMA  =   0.10  broadening in eV -4-tet -1-fermi 0-gaus

 Electronic relaxation 2 (details)
   IALGO  =     48    algorithm
   LDIAG  =      T    sub-space diagonalisation
   IMIX   =      4    mixing-type and parameters
     AMIX     =   0.40;   BMIX     =  1.00
     AMIX_MAG =   1.60;   BMIX_MAG =  1.00
     AMIN     =   0.10
     WC   =   100.;   INIMIX=   1;  MIXPRE=   1

 Intra band minimization:
   WEIMIN = 0.0010     energy-eigenvalue tresh-hold
   EBREAK =  0.23E-10  absolut break condition
   DEPER  =   0.30     relativ break condition

   TIME   =   0.10     timestep for ELM

  volume/ion in A,a.u.               =       8.38        56.54
  Fermi-wavevector in a.u.,eV,Ry     =   0.922657 11.582577  0.851295

 Second variation
   LSECVAR=     F    do a second variation

 Write flags
   LWAVE  =      T    write WAVECAR
   LCHARG =      T    write CHGCAR
   LVTOT  =      F    write LOCPOT, local potential
   LELF   =      F    write electronic localiz. function (ELF)
   LORBIT =      0    0 simple, 1 ext, 2 COOP (PROOUT)

 Dipole corrections
   IDIPOL =      0    1-x, 2-y, 3-z
   LDIPOL =      F    correct potential

 finite differences
 charge density will be updated during run
 non-spin polarized calculation
 RMM-DIIS sequential band-by-band
 performe sub-space diagonalisation
    before iterative eigenvector-optimisation
 modified Broyden-mixing scheme, WC =      100.0
 initial mixing is a Kerker type mixing with AMIX =  0.4000 and BMIX =      1.0000
 Hartree-type preconditioning will be used
 using additional bands           10
 real space projection scheme for non local part
 use partial core corrections
 calculate Harris-corrections to forces
   (improved forces if not selfconsistent)
 use gradient corrections
 use of overlap-Matrix (Vanderbilt PP)
 Gauss-broadening in eV      SIGMA  =   0.10

  energy-cutoff  :      650.00
  volume of cell :       67.03
      direct lattice vectors                 reciprocal lattice vectors
     2.560305945  0.000000000  3.935951168     0.260385548  0.000000000  0.084689398
    -1.280152973  2.217289990  3.935951168    -0.130192774  0.225500499  0.084689398
    -1.280152973 -2.217289990  3.935951168    -0.130192774 -0.225500499  0.084689398

  length of vectors
     4.695410326  4.695410326  4.695410326     0.273811847  0.273811847  0.273811847

 k-points in units of 2pi/SCALE and weight: 4x4x4
   0.00000000  0.00000000  0.03175852       0.031
   0.06509639  0.00000000  0.05293087       0.094
  -0.13019277  0.00000000 -0.01058617       0.094
  -0.06509639  0.00000000  0.01058617       0.094
   0.03254819  0.05637512  0.07410322       0.094
  -0.16274097  0.05637512  0.01058617       0.188
  -0.09764458  0.05637512  0.03175852       0.188
  -0.06509639 -0.11275025 -0.05293087       0.094
   0.00000000  0.00000000  0.09527557       0.031
  -0.19528916  0.00000000  0.03175852       0.094

 k-points in reciprocal lattice and weights: 4x4x4
   0.12500000  0.12500000  0.12500000       0.031
   0.37500000  0.12500000  0.12500000       0.094
  -0.37500000  0.12500000  0.12500000       0.094
  -0.12500000  0.12500000  0.12500000       0.094
   0.37500000  0.37500000  0.12500000       0.094
  -0.37500000  0.37500000  0.12500000       0.188
[...]
  3Z    -0.081643   -0.408346   -0.081113    0.128647   -0.044667    0.120109   -2.261660    4.953298   -4.415534    0.647486    0.042101    1.203398   -0.373879   -0.564258    1.022193   -0.008793    0.074527    0.263495    1.847046   -1.078935    0.877748    0.177536   -3.033432    0.832315
  4X     0.174773   -0.052656   -0.018000    0.137555   -0.139176   -0.183562    0.405659   -0.165702    0.647486   -3.812796   -2.020955   -2.388011    0.915489    0.385347   -0.217877    0.063868    0.114253   -0.081644    0.198978   -0.082399    0.066367    1.828952    2.025684    2.155397
  4Y    -0.052656    0.140207   -0.109660   -0.408099    0.270400    0.909390   -0.090176   -0.024935    0.042101   -2.020955   -6.828276   -4.529889    0.761271    0.427977   -0.250143   -0.014061    1.438423   -0.408347    0.485085    3.956800    3.225230    1.307352    0.542132    1.097479
  4Z    -0.018001   -0.109662    0.071131   -0.418623    0.458073    1.033591    0.561252   -0.232731    1.203398   -2.388011   -4.529889   -4.026101    0.073180    0.002983   -0.048142   -0.041006    0.051229   -0.081114    0.068826    3.235192    0.843837    2.207552    1.299257    0.859790
  5X     0.137555   -0.408100   -0.418623    0.082479   -0.019638   -0.005832    0.095845    0.243971   -0.373879    0.915489    0.761271    0.073180   -7.618453    0.005742    5.700903    1.146810   -0.712778    0.128650    2.644493    1.178485   -2.485351    2.544712   -1.062573   -2.612921
  5Y    -0.139177    0.270400    0.458073   -0.019637    0.071529   -0.009358    0.157344    0.374696   -0.564258    0.385347    0.427977    0.002983    0.005742   -2.548331    0.169319   -0.464684    0.434456   -0.044671    1.636122    0.461886   -0.874162   -1.565480    0.472511    0.872428
  5Z    -0.183564    0.909395    1.033595   -0.005832   -0.009358    0.104382   -0.155293   -0.932283    1.022193   -0.217877   -0.250143   -0.048142    5.700903    0.169319   -4.127314   -0.057740    0.011443    0.120107   -2.728457   -0.849474    0.844922   -2.465846    0.811150    0.892711
  6X     0.405659   -0.090178    0.561250    0.095843    0.157345   -0.155294    0.081579   -0.056942   -0.008793    0.063868   -0.014061   -0.041006    1.146810   -0.464684   -0.057740   -3.934235    2.170331   -2.261672    1.544042   -1.831652    2.020575    0.491735    0.132476    0.058256
  6Y    -0.165703   -0.024934   -0.232732    0.243973    0.374697   -0.932283   -0.056940    0.077929    0.074527    0.114253    1.438423    0.051229   -0.712778    0.434456    0.011443    2.170331   -7.096963    4.953210   -0.848937    0.837039   -1.135565   -0.742473    3.717614   -2.973212
  6Z     0.647487    0.042101    1.203395   -0.373881   -0.564261    1.022197   -0.008793    0.074528    0.263495   -0.081644   -0.408347   -0.081114    0.128650   -0.044671    0.120107   -2.261672    4.953210   -4.415525    1.847061   -1.078949    0.877751    0.177531   -3.033326    0.832307
  7X     0.198976    0.485079    0.068822    2.644449    1.636111   -2.728430    1.544011   -0.848911    1.847046    0.198978    0.485085    0.068826    2.644493    1.636122   -2.728457    1.544042   -0.848937    1.847061  -11.001748   -0.620528    1.038634    2.436905   -1.953373    0.095296
  7Y    -0.082403    3.956736    3.235164    1.178457    0.461885   -0.849467   -1.831624    0.837027   -1.078935   -0.082399    3.956800    3.235192    1.178485    0.461886   -0.849474   -1.831652    0.837039   -1.078949   -0.620528  -12.817546   -2.566326    2.064135    2.703679   -0.041015
  7Z     0.066366    3.225199    0.843835   -2.485323   -0.874163    0.844920    2.020555   -1.135554    0.877748    0.066367    3.225230    0.843837   -2.485351   -0.874162    0.844922    2.020575   -1.135565    0.877751    1.038634   -2.566326   -8.950144   -0.299168    0.051617    4.287863
  8X     1.829026    1.307432    2.207624    2.544832   -1.565525   -2.465930    0.491735   -0.742491    0.177536    1.828952    1.307352    2.207552    2.544712   -1.565480   -2.465846    0.491735   -0.742473    0.177531    2.436905    2.064135   -0.299168  -11.891426   -0.140396    0.748190
  8Y     2.025762    0.542157    1.299298   -1.062637    0.472516    0.811176    0.132458    3.717790   -3.033432    2.025684    0.542132    1.299257   -1.062573    0.472511    0.811150    0.132476    3.717614   -3.033326   -1.953373    2.703679    0.051617   -0.140396  -11.858126    2.181808
  8Z     2.155459    1.097509    0.859796   -2.612995    0.872445    0.892717    0.058257   -2.973307    0.832315    2.155397    1.097479    0.859790   -2.612921    0.872428    0.892711    0.058256   -2.973212    0.832307    0.095296   -0.041015    4.287863    0.748190    2.181808   -8.971134

 MASS-WEIGHTED SECOND DERIVATIVES
               1X          1Y          1Z          2X          2Y          2Z          3X          3Y          3Z          4X          4Y          4Z          5X          5Y          5Z          6X          6Y          6Z          7X          7Y          7Z          8X          8Y          8Z
  1X    -3.812874   -2.021025   -2.388074    0.915493    0.385346   -0.217875    0.063866    0.114255   -0.081643    0.174773   -0.052656   -0.018001    0.137555   -0.139177   -0.183564    0.405659   -0.165703    0.647487    0.038306   -0.015864    0.012776    0.352114    0.389988    0.414957
  1Y    -2.021025   -6.828231   -4.529900    0.761270    0.427975   -0.250142   -0.014060    1.438424   -0.408346   -0.052656    0.140207   -0.109662   -0.408100    0.270400    0.909395   -0.090178   -0.024934    0.042101    0.093385    0.761728    0.620897    0.251699    0.104373    0.211286
  1Z    -2.388074   -4.529900   -4.026112    0.073179    0.002980   -0.048141   -0.041008    0.051227   -0.081113   -0.018000   -0.109660    0.071131   -0.418623    0.458073    1.033595    0.561250   -0.232732    1.203395    0.013249    0.622815    0.162450    0.424999    0.250133    0.165523
  2X     0.915493    0.761270    0.073179   -7.618526    0.005800    5.700955    1.146809   -0.712777    0.128647    0.137555   -0.408099   -0.418623    0.082479   -0.019637   -0.005832    0.095843    0.243973   -0.373881    0.509094    0.226870   -0.478460    0.489916   -0.204573   -0.503039
  2Y     0.385346    0.427975    0.002980    0.005800   -2.548336    0.169307   -0.464684    0.434456   -0.044667   -0.139176    0.270400    0.458073   -0.019638    0.071529   -0.009358    0.157345    0.374697   -0.564261    0.314975    0.088920   -0.168289   -0.301386    0.090966    0.167958
  2Z    -0.217875   -0.250142   -0.048141    5.700955    0.169307   -4.127320   -0.057739    0.011441    0.120109   -0.183562    0.909390    1.033591   -0.005832   -0.009358    0.104382   -0.155294   -0.932283    1.022197   -0.525262   -0.163534    0.162659   -0.474727    0.156163    0.171861
  3X     0.063866   -0.014060   -0.041008    1.146809   -0.464684   -0.057739   -3.934203    2.170321   -2.261660    0.405659   -0.090176    0.561252    0.095845    0.157344   -0.155293    0.081579   -0.056940   -0.008793    0.297244   -0.352614    0.388986    0.094666    0.025500    0.011215
  3Y     0.114255    1.438424    0.051227   -0.712777    0.434456    0.011441    2.170321   -7.097132    4.953298   -0.165702   -0.024935   -0.232731    0.243971    0.374696   -0.932283   -0.056942    0.077929    0.074528   -0.163427    0.161140   -0.218610   -0.142940    0.715728   -0.572404
  3Z    -0.081643   -0.408346   -0.081113    0.128647   -0.044667    0.120109   -2.261660    4.953298   -4.415534    0.647486    0.042101    1.203398   -0.373879   -0.564258    1.022193   -0.008793    0.074527    0.263495    0.355583   -0.207710    0.168979    0.034178   -0.583979    0.160232
  4X     0.174773   -0.052656   -0.018000    0.137555   -0.139176   -0.183562    0.405659   -0.165702    0.647486   -3.812796   -2.020955   -2.388011    0.915489    0.385347   -0.217877    0.063868    0.114253   -0.081644    0.038306   -0.015863    0.012777    0.352099    0.389973    0.414945
  4Y    -0.052656    0.140207   -0.109660   -0.408099    0.270400    0.909390   -0.090176   -0.024935    0.042101   -2.020955   -6.828276   -4.529889    0.761271    0.427977   -0.250143   -0.014061    1.438423   -0.408347    0.093386    0.761741    0.620903    0.251684    0.104368    0.211280
  4Z    -0.018001   -0.109662    0.071131   -0.418623    0.458073    1.033591    0.561252   -0.232731    1.203398   -2.388011   -4.529889   -4.026101    0.073180    0.002983   -0.048142   -0.041006    0.051229   -0.081114    0.013250    0.622821    0.162451    0.424985    0.250126    0.165522
  5X     0.137555   -0.408100   -0.418623    0.082479   -0.019638   -0.005832    0.095845    0.243971   -0.373879    0.915489    0.761271    0.073180   -7.618453    0.005742    5.700903    1.146810   -0.712778    0.128650    0.509103    0.226875   -0.478466    0.489893   -0.204561   -0.503025
  5Y    -0.139177    0.270400    0.458073   -0.019637    0.071529   -0.009358    0.157344    0.374696   -0.564258    0.385347    0.427977    0.002983    0.005742   -2.548331    0.169319   -0.464684    0.434456   -0.044671    0.314977    0.088920   -0.168289   -0.301377    0.090965    0.167955
  5Z    -0.183564    0.909395    1.033595   -0.005832   -0.009358    0.104382   -0.155293   -0.932283    1.022193   -0.217877   -0.250143   -0.048142    5.700903    0.169319   -4.127314   -0.057740    0.011443    0.120107   -0.525267   -0.163536    0.162660   -0.474711    0.156158    0.171860
  6X     0.405659   -0.090178    0.561250    0.095843    0.157345   -0.155294    0.081579   -0.056942   -0.008793    0.063868   -0.014061   -0.041006    1.146810   -0.464684   -0.057740   -3.934235    2.170331   -2.261672    0.297250   -0.352619    0.388990    0.094666    0.025504    0.011215
  6Y    -0.165703   -0.024934   -0.232732    0.243973    0.374697   -0.932283   -0.056940    0.077929    0.074527    0.114253    1.438423    0.051229   -0.712778    0.434456    0.011443    2.170331   -7.096963    4.953210   -0.163432    0.161142   -0.218613   -0.142937    0.715694   -0.572386
  6Z     0.647487    0.042101    1.203395   -0.373881   -0.564261    1.022197   -0.008793    0.074528    0.263495   -0.081644   -0.408347   -0.081114    0.128650   -0.044671    0.120107   -2.261672    4.953210   -4.415525    0.355586   -0.207713    0.168980    0.034177   -0.583959    0.160231
  7X     0.038306    0.093385    0.013249    0.509094    0.314975   -0.525262    0.297244   -0.163427    0.355583    0.038306    0.093386    0.013250    0.509103    0.314977   -0.525267    0.297250   -0.163432    0.355586   -0.407744   -0.022998    0.038494    0.090316   -0.072395    0.003532
  7Y    -0.015864    0.761728    0.622815    0.226870    0.088920   -0.163534   -0.352614    0.161140   -0.207710   -0.015863    0.761741    0.622821    0.226875    0.088920   -0.163536   -0.352619    0.161142   -0.207713   -0.022998   -0.475041   -0.095113    0.076500    0.100203   -0.001520
  7Z     0.012776    0.620897    0.162450   -0.478460   -0.168289    0.162659    0.388986   -0.218610    0.168979    0.012777    0.620903    0.162451   -0.478466   -0.168289    0.162660    0.388990   -0.218613    0.168980    0.038494   -0.095113   -0.331708   -0.011088    0.001913    0.158916
  8X     0.352114    0.251699    0.424999    0.489916   -0.301386   -0.474727    0.094666   -0.142940    0.034178    0.352099    0.251684    0.424985    0.489893   -0.301377   -0.474711    0.094666   -0.142937    0.034177    0.090316    0.076500   -0.011088   -0.440717   -0.005203    0.027729
  8Y     0.389988    0.104373    0.250133   -0.204573    0.090966    0.156163    0.025500    0.715728   -0.583979    0.389973    0.104368    0.250126   -0.204561    0.090965    0.156158    0.025504    0.715694   -0.583959   -0.072395    0.100203    0.001913   -0.005203   -0.439483    0.080862
  8Z     0.414957    0.211286    0.165523   -0.503039    0.167958    0.171861    0.011215   -0.572404    0.160232    0.414945    0.211280    0.165522   -0.503025    0.167955    0.171860    0.011215   -0.572386    0.160231    0.003532   -0.001520    0.158916    0.027729    0.080862   -0.332486

 Eigenvectors and eigenvalues of the dynamical matrix

   1 f  =   61.880092 THz   388.804082 2PiTHz 2064.097613 cm-1   255.915580 meV
             X         Y         Z           dx          dy          dz
      1.154810  0.811470  6.887910     0.142328    0.284744    0.218505
     -1.280150  0.594360  6.887910    -0.325017   -0.005914    0.256184
      0.125350 -1.405820  6.887910     0.147813   -0.308571    0.250139
     -1.154810 -0.811470  4.919940    -0.142322   -0.284738   -0.218502
      1.280150 -0.594360  4.919940     0.325007    0.005917   -0.256181
     -0.125350  1.405820  4.919940    -0.147808    0.308554   -0.250128
      0.000000  0.000000  0.000000     0.000000    0.000000   -0.000001
      0.000000  0.000000  5.903930     0.000000    0.000001   -0.000002

[...]

  20 f/i=    3.388560 THz    21.290949 2PiTHz  113.030183 cm-1    14.013962 meV
             X         Y         Z           dx          dy          dz
      1.154810  0.811470  6.887910    -0.003187    0.088661   -0.237061
     -1.280150  0.594360  6.887910     0.017740   -0.020821   -0.011275
      0.125350 -1.405820  6.887910     0.000646    0.083049    0.115405
     -1.154810 -0.811470  4.919940    -0.003182    0.088674   -0.237080
      1.280150 -0.594360  4.919940     0.017735   -0.020814   -0.011282
     -0.125350  1.405820  4.919940     0.000645    0.083064    0.115423
      0.000000  0.000000  0.000000     0.212958   -0.484562    0.017868
      0.000000  0.000000  5.903930    -0.333145   -0.477507   -0.458468

[...]

 Eigenvectors after division by SQRT(mass)

 Eigenvectors and eigenvalues of the dynamical matrix

[...]

  19 f  =    0.426128 THz     2.677439 2PiTHz   14.214090 cm-1     1.762323 meV
             X         Y         Z           dx          dy          dz
      1.154810  0.811470  6.887910    -0.090696    0.058191   -0.077739
     -1.280150  0.594360  6.887910    -0.112102    0.058648   -0.088309
      0.125350 -1.405820  6.887910    -0.095105    0.061657   -0.063093
     -1.154810 -0.811470  4.919940    -0.090697    0.058192   -0.077740
      1.280150 -0.594360  4.919940    -0.112103    0.058649   -0.088310
     -0.125350  1.405820  4.919940    -0.095106    0.061658   -0.063092
      0.000000  0.000000  0.000000    -0.091003    0.051821   -0.064545
      0.000000  0.000000  5.903930    -0.101231    0.054407   -0.066335

[...]

  24 f/i=   12.050010 THz    75.712447 2PiTHz  401.945061 cm-1    49.834854 meV
             X         Y         Z           dx          dy          dz
      1.154810  0.811470  6.887910     0.072061    0.107170   -0.256641
     -1.280150  0.594360  6.887910    -0.311769    0.000029   -0.459676
      0.125350 -1.405820  6.887910     0.027705   -0.039879   -0.196643
     -1.154810 -0.811470  4.919940     0.072274    0.107384   -0.257092
      1.280150 -0.594360  4.919940    -0.311304    0.000159   -0.459051
     -0.125350  1.405820  4.919940     0.027892   -0.039726   -0.196569
      0.000000  0.000000  0.000000     0.015486   -0.020392    0.046038
      0.000000  0.000000  5.903930     0.004217    0.020524    0.042927

 Finite differences POTIM=  0.500000000000000
  LATTYP: Found a trigonal (rhomboedric) cell.
 ALAT       =     4.6954103261
 COS(alpha) =     0.5540071596

  Lattice vectors:

 A1 = (   2.5603059450,   0.0000000000,   3.9359511680)
 A2 = (  -1.2801529730,   2.2172899900,   3.9359511680)
 A3 = (  -1.2801529730,  -2.2172899900,   3.9359511680)
 Subroutine PRICEL returns:
 Original cell was already a primitive cell.

Analysis of symmetry for initial positions (statically):

 Routine SETGRP: Setting up the symmetry group for a
 trigonal (rhombohedral) supercell.

 Subroutine GETGRP returns: Found  3 space group operations
 (whereof  3 operations were pure point group operations)
 out of a pool of 12 trial point group operations.

The static configuration has the point symmetry C_3 .

Analysis of symmetry for dynamics (positions and initial velocities):

 Subroutine DYNSYM returns: Found  3 space group operations
 (whereof  3 operations were pure point group operations)
 out of a pool of  3 trial space group operations
 (whereof  3 operations were pure point group operations)
 and found also     1 'primitive' translations

The dynamic configuration has the point symmetry C_3 .

 mean value of Nose-termostat <S>:     1.000 mean value of <T> :     0.000
 mean temperature <T/S>/<1/S>  :     0.000

 writing wavefunctions