 vasp.4.6.28 25Jul05 complex
 executed on             LinuxPgi date 2010.01.06  12:41:11

 INCAR:
 POTCAR:    PAW H
 POTCAR:    PAW O
 POTCAR:    PAW Pd
 POTCAR:    PAW H
   VRHFIN =H: ultrasoft test

   TITEL  = PAW H
   POMASS =    1.000; ZVAL   =    1.000    mass and valenz
   ENMAX  =  250.000; ENMIN  =  200.000 eV
   QCUT   =   -5.749; QGAM   =   11.498    optimization parameters

   Description
     l     E      TYP  RCUT    TYP  RCUT
     0   .000     23  1.100
     0   .500     23  1.100
     1  -.300     23  1.100

 POTCAR:    PAW O
   VRHFIN =O: s2p4

[...]

 POTCAR:    PAW Pd
   VRHFIN =Pd : s1 d9

   TITEL  = PAW Pd
   POMASS =  106.420; ZVAL   =   10.000    mass and valenz
   ENMAX  =  250.918; ENMIN  =  188.188 eV
   QCUT   =   -4.294; QGAM   =    8.589    optimization parameters

   Description
     l     E      TYP  RCUT    TYP  RCUT
     2   .000     23  2.400
     2   .000     23  2.400
     0   .000     23  2.400
     0   .000     23  2.400
     1  -.200     23  2.400
     1   .000     23  2.400
     3   .000      7   .000

 Optimization of the real space projectors (new method)

 maximal supplied QI-value         = 34.20
 optimisation between [QCUT,QGAM] = [ 10.26, 26.00] = [ 29.48,189.23] Ry
 Optimized for a Real-space Cutoff    0.88 Angstroem

   l    n(q)    QCUT    max X(q) W(low)/X(q) W(high)/X(q)  e(spline)
   0      7    10.261     4.435    0.21E-04    0.19E-04    0.12E-07
   0      7    10.261    16.011    0.32E-03    0.36E-03    0.34E-07
   1      6    10.261     4.617    0.29E-03    0.36E-03    0.61E-07
 Optimization of the real space projectors (new method)

[...]

   l    n(q)    QCUT    max X(q) W(low)/X(q) W(high)/X(q)  e(spline)
   0      8    10.397     4.138    0.27E-04    0.17E-04    0.12E-07
   0      8    10.397     8.500    0.18E-03    0.58E-04    0.17E-06
   1      7    10.397     2.482    0.26E-04    0.27E-05    0.22E-07
   1      7    10.397     3.878    0.18E-03    0.13E-03    0.93E-07
 Optimization of the real space projectors (new method)

 maximal supplied QI-value         = 15.68
 optimisation between [QCUT,QGAM] = [ 10.35, 26.04] = [ 30.01,189.83] Ry
 Optimized for a Real-space Cutoff    1.33 Angstroem

   l    n(q)    QCUT    max X(q) W(low)/X(q) W(high)/X(q)  e(spline)
   2      9    10.352     3.678    0.15E-04    0.92E-06    0.11E-06
   2      9    10.352    27.581    0.32E-03    0.42E-03    0.34E-05
   0     10    10.352    18.529    0.23E-04    0.15E-04    0.13E-06
   0     10    10.352    72.518    0.10E-03    0.18E-03    0.18E-05
   1     10    10.352     7.283    0.86E-04    0.15E-04    0.36E-06
   1     10    10.352     9.762    0.36E-03    0.28E-04    0.14E-05
  PAW H                                 :
  PAW O                                 :
  PAW Pd                                :

 POSCAR: Pd - (111)
  positions in direct lattice
  velocities in cartesian coordinates

 ion  position               nearest neighbor table
   1  0.792  0.898  0.448-   3 0.98
   2  0.803  0.200  0.384-   6 1.79   5 1.81
   3  0.954  0.068  0.432-   1 0.98   4 2.07
   4  0.009  0.997  0.336-   3 2.07   5 2.77   6 2.77   7 2.80   7 2.80   8 2.82   6 2.82   5 2.83
                            11 2.84  10 2.89
   5  0.004  0.499  0.334-   2 1.81   4 2.77   6 2.79   7 2.79   7 2.80   6 2.81  10 2.81   9 2.82
                             4 2.83  11 2.83
   6  0.507  0.001  0.334-   2 1.79   4 2.77   5 2.79   7 2.80   7 2.80  10 2.80   5 2.81   4 2.82
                             8 2.83   9 2.83
   7  0.505  0.500  0.330-  11 2.75   8 2.76   9 2.78   5 2.79   6 2.80   4 2.80   4 2.80   6 2.80
                             5 2.80
   8  0.331  0.164  0.222-   7 2.76  11 2.77  10 2.79  13 2.79   9 2.79  12 2.80  14 2.80   9 2.80
                            10 2.81   4 2.82   6 2.83  11 2.83
   9  0.335  0.667  0.221-  15 2.78  12 2.78   7 2.78  13 2.78   8 2.79  11 2.79  10 2.80  10 2.80
                            11 2.80   8 2.80   5 2.82   6 2.83
  10  0.834  0.168  0.222-  12 2.78  14 2.79  15 2.79   8 2.79  11 2.79   9 2.80   9 2.80  11 2.80
                             6 2.80   8 2.81   5 2.81   4 2.89
  11  0.836  0.669  0.222-   7 2.75   8 2.77  13 2.78  15 2.79  10 2.79   9 2.79  14 2.80   9 2.80
                            10 2.80   5 2.83   8 2.83   4 2.84
  12  0.167  0.333  0.111-   9 2.78  10 2.78   8 2.80  17 2.80  19 2.80  16 2.80  15 2.80  13 2.80
                            14 2.80  14 2.80  15 2.80  13 2.80
  13  0.167  0.833  0.111-   9 2.78  11 2.78   8 2.79  18 2.80  16 2.80  14 2.80  12 2.80  15 2.80
                            15 2.80  12 2.80  17 2.80  14 2.80
  14  0.667  0.333  0.111-  10 2.79  19 2.80  17 2.80  13 2.80  18 2.80  15 2.80  12 2.80  12 2.80
                            15 2.80  13 2.80  11 2.80   8 2.80
  15  0.667  0.833  0.111-   9 2.78  10 2.79  11 2.79  16 2.80  18 2.80  12 2.80  14 2.80  13 2.80
                            13 2.80  12 2.80  14 2.80  19 2.80
  16  0.000  0.000  0.000-  17 2.80  19 2.80  15 2.80  13 2.80  12 2.80  18 2.80  18 2.80  19 2.80
                            17 2.80
  17  1.000  0.500  0.000-  12 2.80  16 2.80  14 2.80  18 2.80  19 2.80  19 2.80  13 2.80  18 2.80
                            16 2.80
  18  0.500  0.000  0.000-  19 2.80  13 2.80  17 2.80  15 2.80  14 2.80  16 2.80  16 2.80  17 2.80
                            19 2.80
  19  0.500  0.500  0.000-  14 2.80  12 2.80  18 2.80  16 2.80  17 2.80  17 2.80  15 2.80  16 2.80
                            18 2.80

  LATTYP: Found a hexagonal cell.
 ALAT       =     5.5960428193
 C/A-ratio  =     3.6742347603

  Lattice vectors:

 A1 = (   5.5960430569,   0.0000000000,   0.0000000000)
 A2 = (  -2.7980215285,   4.8463151736,   0.0000000000)
 A3 = (   0.0000000000,   0.0000000000,  20.5611750468)
 Subroutine PRICEL returns:
 Original cell was already a primitive cell.

Analysis of symmetry for initial positions (statically):

 Routine SETGRP: Setting up the symmetry group for a
 hexagonal supercell.

 Subroutine GETGRP returns: Found  1 space group operations
 (whereof  1 operations were pure point group operations)
 out of a pool of 24 trial point group operations.

The static configuration has the point symmetry C_1 .

Analysis of symmetry for dynamics (positions and initial velocities):

 Subroutine DYNSYM returns: Found  1 space group operations
 (whereof  1 operations were pure point group operations)
 out of a pool of  1 trial space group operations
 (whereof  1 operations were pure point group operations)
 and found also     1 'primitive' translations

The dynamic configuration has the point symmetry C_1 .

Analysis of constrained symmetry for selective dynamics:

[...]

The constrained configuration has the point symmetry C_1 .

 KPOINTS: Automatic mesh

Automatic generation of k-mesh.

 Subroutine IBZKPT returns following result:

 Found     25 irreducible k-points:

 Following reciprocal coordinates:
            Coordinates               Weight
  0.000000  0.000000  0.000000      1.000000
  0.142857  0.000000  0.000000      2.000000
  0.285714  0.000000  0.000000      2.000000
  0.428571  0.000000  0.000000      2.000000
  0.000000  0.142857  0.000000      2.000000
  0.142857  0.142857  0.000000      2.000000
  0.285714  0.142857  0.000000      2.000000
  0.428571  0.142857  0.000000      2.000000
 -0.428571  0.142857  0.000000      2.000000
 -0.285714  0.142857  0.000000      2.000000
 -0.142857  0.142857  0.000000      2.000000
  0.000000  0.285714  0.000000      2.000000
  0.142857  0.285714  0.000000      2.000000
  0.285714  0.285714  0.000000      2.000000
  0.428571  0.285714  0.000000      2.000000
 -0.428571  0.285714  0.000000      2.000000
 -0.285714  0.285714  0.000000      2.000000
 -0.142857  0.285714  0.000000      2.000000
  0.000000  0.428571  0.000000      2.000000
  0.142857  0.428571  0.000000      2.000000
  0.285714  0.428571  0.000000      2.000000
  0.428571  0.428571  0.000000      2.000000
 -0.428571  0.428571  0.000000      2.000000
 -0.285714  0.428571  0.000000      2.000000
 -0.142857  0.428571  0.000000      2.000000

 Following cartesian coordinates:
            Coordinates               Weight
  0.000000  0.000000  0.000000      1.000000
  0.025528  0.014739  0.000000      2.000000
  0.051056  0.029477  0.000000      2.000000
  0.076585  0.044216  0.000000      2.000000
  0.000000  0.029477  0.000000      2.000000
  0.025528  0.044216  0.000000      2.000000
  0.051056  0.058955  0.000000      2.000000
  0.076585  0.073694  0.000000      2.000000
 -0.076585 -0.014739  0.000000      2.000000
 -0.051056  0.000000  0.000000      2.000000
 -0.025528  0.014739  0.000000      2.000000
  0.000000  0.058955  0.000000      2.000000
  0.025528  0.073694  0.000000      2.000000
  0.051056  0.088432  0.000000      2.000000
  0.076585  0.103171  0.000000      2.000000
 -0.076585  0.014739  0.000000      2.000000
 -0.051056  0.029477  0.000000      2.000000
 -0.025528  0.044216  0.000000      2.000000
  0.000000  0.088432  0.000000      2.000000
  0.025528  0.103171  0.000000      2.000000
  0.051056  0.117910  0.000000      2.000000
  0.076585  0.132649  0.000000      2.000000
 -0.076585  0.044216  0.000000      2.000000
 -0.051056  0.058955  0.000000      2.000000
 -0.025528  0.073694  0.000000      2.000000

 I would recommend the setting:
   dimension x,y,z NGX =    37 NGY =   37 NGZ =  137
 SYSTEM =  unknown system
 POSCAR =  Pd - (111)

 Startparameter for this run:
   NWRITE =      2    write-flag & timer
   PREC   = high      medium, high low
   ISTART =      0    job   : 0-new  1-cont  2-samecut
   ICHARG =      2    charge: 1-file 2-atom 10-const
   ISPIN  =      1    spin polarized calculation?
   LNONCOLLINEAR =      F non collinear calculations
   LSORBIT =      F    spin-orbit coupling
   INIWAV =      1    electr: 0-lowe 1-rand  2-diag
   LASPH  =      F    aspherical Exc in radial PAW
   METAGGA=      F    non-selfconsistent MetaGGA calc.

 Electronic Relaxation 1
   ENCUT  =  415.0 eV  30.50 Ry    5.52 a.u.   9.30  9.30 34.15*2*pi/ulx,y,z
   ENINI  =  415.0     initial cutoff
   ENAUG  =  605.4 eV  augmentation charge cutoff
   NELM   =     60;   NELMIN=  2; NELMDL= -5     # of ELM steps
   EDIFF  = 0.1E-03   stopping-criterion for ELM
   LREAL  =      T    real-space projection
   LCOMPAT=      F    compatible to vasp.4.4
   LREAL_COMPAT= F    compatible to vasp.4.5.1-3
   GGA_COMPAT  = T    GGA compatible to vasp.4.4-vasp.4.6
   LMAXPAW     = -100 max onsite density
   LMAXMIX     =    2 max onsite mixed and CHGCAR
   VOSKOWN=      0    Vosko Wilk Nusair interpolation
   ROPT   =   -0.00040  -0.00040  -0.00040
 Ionic relaxation
   EDIFFG = 0.1E-02   stopping-criterion for IOM
   NSW    =    229    number of steps for IOM
   NBLOCK =      1;   KBLOCK =      1    inner block; outer block
   IBRION =      5    ionic relax: 0-MD 1-quasi-New 2-CG
   NFREE  =      2    steps in history (QN), initial steepest desc. (CG)
   ISIF   =      2    stress and relaxation
   IWAVPR =     11    prediction:  0-non 1-charg 2-wave 3-comb
   ISYM   =      2    0-nonsym 1-usesym 2-fastsym
   LCORR  =      T    Harris-Foulkes like correction to forces

   POTIM  =   0.05    time-step for ionic-motion
[...]
      2.79802      0.00000      0.00000         0.000208     -0.028679     -0.053553
      1.39901      2.42315      0.00000        -0.012532      0.005134     -0.058931
    total drift:                                0.012784      0.000565      0.002016

 Finite differences progress:
  Degree of freedom:   9/  9
  Displacement:        2/  2
  Total:              18/ 18

 FORCES

 INITIAL FORCE
 -0.000132   0.000311   0.001500
 -0.000199   0.000164  -0.002143
 -0.006397  -0.003814  -0.022674
  0.006044   0.003622   0.018502
  0.008236  -0.001123  -0.015540
  0.000984  -0.006280  -0.013184
 -0.001989  -0.001389   0.003844
 -0.025119  -0.029202   0.024812
 -0.008424   0.005862   0.026409
  0.014769  -0.002802   0.059232
  0.014192   0.030708   0.024594
  0.025773  -0.022081   0.018021
 -0.033386   0.030166   0.116664
 -0.041715   0.015069  -0.008805
  0.025185  -0.005934   0.006167
  0.006787  -0.003398  -0.058284
  0.028780   0.013824  -0.065881
  0.001261  -0.030342  -0.053512
 -0.014651   0.006639  -0.059721
DOF:   1 ATOM:   1 AXIS:   1 DISPLACEMENT:   1
 -0.440356  -0.871523   0.355601
 -0.012477  -0.009248  -0.007501
  0.443752   0.871381  -0.375861
  0.010373   0.012799   0.013691
  0.005762  -0.001044  -0.017306
  0.005778  -0.006351  -0.005981
 -0.003381  -0.002415  -0.000061
 -0.023844  -0.029440   0.025462
 -0.008775   0.005939   0.025608
  0.014457  -0.003464   0.059700
  0.012840   0.031352   0.026317
  0.025209  -0.021553   0.019234
 -0.033370   0.029152   0.117769
 -0.041467   0.015085  -0.008078
  0.024476  -0.006157   0.007838
  0.006406  -0.004261  -0.058509
  0.028010   0.013917  -0.065317
  0.000730  -0.030935  -0.052749
 -0.014123   0.006767  -0.059858

DOF:   1 ATOM:   1 AXIS:   1 DISPLACEMENT:   2
  0.489672   0.769451  -0.322538
  0.009712   0.011049  -0.003845
 -0.496632  -0.772846   0.304627
  0.000821  -0.006955   0.017808
  0.010997  -0.001106  -0.011959
 -0.003042  -0.007535  -0.018540
 -0.002201   0.001170   0.005386
 -0.025683  -0.029656   0.026008
 -0.009322   0.005740   0.025688
  0.014485  -0.001879   0.059019
  0.016229   0.029730   0.023625
  0.024939  -0.021259   0.018000
 -0.033486   0.029304   0.116916
 -0.041301   0.014879  -0.007549
  0.024457  -0.006052   0.006464
  0.006810  -0.003667  -0.059966
  0.028217   0.014519  -0.066202
 -0.000266  -0.031085  -0.052457
 -0.014406   0.006197  -0.060485

[...]

DOF:   9 ATOM:   3 AXIS:   3 DISPLACEMENT:   2
  0.328945   0.603026  -0.343924
 -0.042065   0.020662  -0.015752
 -0.386680  -0.537184   0.836791
  0.121799  -0.098558  -0.415906
  0.003377   0.015697  -0.041240
 -0.012711  -0.008688  -0.036051
  0.000605  -0.001354  -0.011505
 -0.028702  -0.031652   0.035494
 -0.009429   0.006822   0.024628
  0.012832  -0.000773   0.056672
  0.013637   0.028671   0.021814
  0.025958  -0.020588   0.018236
 -0.032462   0.029432   0.117870
 -0.041091   0.015485  -0.014282
  0.024864  -0.007103   0.007042
  0.006616  -0.004083  -0.058197
  0.026830   0.013732  -0.069207
  0.000208  -0.028679  -0.053553
 -0.012532   0.005134  -0.058931

 DYNMAT
    3    2    1   16    9
  1.000 16.000106.420
    1    1  0.0500  0.0000  0.0000
 -0.465014  -0.820487   0.339069
 -0.011094  -0.010149  -0.001828
  0.470192   0.822114  -0.340244
  0.004776   0.009877  -0.002059
 -0.002618   0.000031  -0.002674
  0.004410   0.000592   0.006280
 -0.000590  -0.001793  -0.002723
  0.000920   0.000108  -0.000273
  0.000274   0.000099  -0.000040
 -0.000014  -0.000793   0.000341
 -0.001695   0.000811   0.001346
  0.000135  -0.000147   0.000617
  0.000058  -0.000076   0.000427
 -0.000083   0.000103  -0.000265
  0.000009  -0.000053   0.000687
 -0.000202  -0.000297   0.000728
 -0.000104  -0.000301   0.000442
  0.000498   0.000075  -0.000146
  0.000142   0.000285   0.000313
    1    2  0.0000  0.0500  0.0000
 -0.839800  -1.613913   0.635712
  0.001002   0.002972  -0.001964
  0.844437   1.614393  -0.639516
 -0.004166  -0.005990   0.006804
 -0.000115   0.001126  -0.000194
 -0.001013   0.001878  -0.003619
 -0.000046  -0.000919  -0.003913
 -0.001760   0.000832   0.001957
  0.001086  -0.000956   0.000058
  0.000950   0.000289  -0.000477
 -0.000258  -0.000343  -0.000030
  0.000041  -0.000156   0.000447
 -0.000182   0.000563   0.001594
 -0.000252   0.000115   0.001122
 -0.000166  -0.000258   0.000540
 -0.000147   0.000534   0.000641
  0.000460  -0.000223   0.000086
  0.000155   0.000181  -0.000215
 -0.000225  -0.000126   0.000968
    1    3  0.0000  0.0000  0.0500
  0.337731   0.619730  -0.349664
 -0.001625  -0.006215   0.004133
 -0.319043  -0.581199   0.306099
 -0.018169  -0.032615   0.028537
  0.000254  -0.000884  -0.000333
  0.003108   0.000940   0.003693
  0.000152   0.001217   0.003054
 -0.002368  -0.000012   0.007487
  0.000686   0.000165   0.000297
  0.000502   0.000544   0.000261
 -0.000940  -0.003206  -0.007464
 -0.000387   0.000090   0.000564
 -0.000121   0.000192  -0.000286
  0.000102   0.000607   0.001932
 -0.000126   0.000083  -0.000071
 -0.000394  -0.000040   0.000221
 -0.000019  -0.000077  -0.001232
[...]
  0.004522  -0.015197   0.023601
  0.013348   0.001798   0.022809
 -0.003215   0.001033   0.013987
  0.004028   0.002324  -0.009981
  0.000655  -0.000546   0.000762
  0.001503  -0.002135   0.002237
  0.000269   0.001666   0.002660
 -0.001115  -0.000681   0.000361
 -0.001149  -0.000110  -0.000375
 -0.000366  -0.000198   0.006568
 -0.000122   0.001256   0.000691
 -0.000649  -0.000130  -0.000841
  0.000446   0.000319   0.001370
  0.000334  -0.001867   0.000338
 -0.001505   0.001509  -0.000300

 SECOND DERIVATIVES (NOT SYMMETRIZED)
               1X          1Y          1Z          2X          2Y          2Z          3X          3Y          3Z
  1X    -9.300278  -16.409743    6.781383   -0.221889   -0.202972   -0.036555    9.403836   16.442272   -6.804875
  1Y   -16.796009  -32.278262   12.714239    0.020035    0.059432   -0.039281   16.888747   32.287867  -12.790321
  1Z     6.754619   12.394604   -6.993272   -0.032501   -0.124291    0.082663   -6.380856  -11.623987    6.121976
  2X    -0.233292   -0.011489   -0.048110   -0.260794   -0.944157    0.851183   -0.662924    0.626374    0.682570
  2Y    -0.172341    0.112436   -0.138403   -0.960275   -1.195565   -0.598686    0.793535   -0.344944   -0.271948
  2Z    -0.075941   -0.127777    0.092024    0.852707   -0.614445   -1.922346   -1.825267    1.126247    0.117205
  3X     9.354622   16.394057   -6.344354   -0.681335    0.830291   -1.848858   -9.360602  -17.002770    7.582170
  3Y    16.783230   32.274038  -11.915521    0.584609   -0.282110    1.022434  -17.612079  -33.010361   11.566055
  3Z    -6.677560  -12.275737    6.116550    0.786045   -0.376073    0.243511    7.565704   11.061638  -15.305691

 SECOND DERIVATIVES (SYMMETRYZED)
               1X          1Y          1Z          2X          2Y          2Z          3X          3Y          3Z
  1X    -9.300278  -16.602876    6.768001   -0.227590   -0.187657   -0.056248    9.379229   16.612751   -6.741217
  1Y   -16.602876  -32.278262   12.554421    0.004273    0.085934   -0.083529   16.641402   32.280953  -12.533029
  1Z     6.768001   12.554421   -6.993272   -0.040306   -0.131347    0.087343   -6.362605  -11.769754    6.119263
  2X    -0.227590    0.004273   -0.040306   -0.260794   -0.952216    0.851945   -0.672130    0.605491    0.734307
  2Y    -0.187657    0.085934   -0.131347   -0.952216   -1.195565   -0.606566    0.811913   -0.313527   -0.324011
  2Z    -0.056248   -0.083529    0.087343    0.851945   -0.606566   -1.922346   -1.837063    1.074341    0.180358
  3X     9.379229   16.641402   -6.362605   -0.672130    0.811913   -1.837063   -9.360602  -17.307425    7.573937
  3Y    16.612751   32.280953  -11.769754    0.605491   -0.313527    1.074341  -17.307425  -33.010361   11.313846
  3Z    -6.741217  -12.533029    6.119263    0.734307   -0.324011    0.180358    7.573937   11.313846  -15.305691

 MASS-WEIGHTED SECOND DERIVATIVES
               1X          1Y          1Z          2X          2Y          2Z          3X          3Y          3Z
  1X    -9.300278  -16.602876    6.768001   -0.227590   -0.187657   -0.056248    2.344807    4.153188   -1.685304
  1Y   -16.602876  -32.278262   12.554421    0.004273    0.085934   -0.083529    4.160350    8.070238   -3.133257
  1Z     6.768001   12.554421   -6.993272   -0.040306   -0.131347    0.087343   -1.590651   -2.942439    1.529816
  2X    -0.227590    0.004273   -0.040306   -0.260794   -0.952216    0.851945   -0.168032    0.151373    0.183577
  2Y    -0.187657    0.085934   -0.131347   -0.952216   -1.195565   -0.606566    0.202978   -0.078382   -0.081003
  2Z    -0.056248   -0.083529    0.087343    0.851945   -0.606566   -1.922346   -0.459266    0.268585    0.045089
  3X     2.344807    4.160350   -1.590651   -0.168032    0.202978   -0.459266   -0.585038   -1.081714    0.473371
  3Y     4.153188    8.070238   -2.942439    0.151373   -0.078382    0.268585   -1.081714   -2.063148    0.707115
  3Z    -1.685304   -3.133257    1.529816    0.183577   -0.081003    0.045089    0.473371    0.707115   -0.956606

 Eigenvectors and eigenvalues of the dynamical matrix

   1 f  =  109.456179 THz   687.733457 2PiTHz 3651.065029 cm-1   452.674533 meV
             X         Y         Z           dx          dy          dz
      1.920325  4.354072  9.214884    -0.424619   -0.807513    0.330660
      3.932470  0.967172  7.897336    -0.001535    0.000370   -0.002552
      5.147965  0.327653  8.890411     0.106030    0.200755   -0.082043
     -2.737057  4.829452  6.911509            0           0           0
     -1.372451  2.418984  6.864455            0           0           0
      2.834201  0.005010  6.864793            0           0           0
      1.430521  2.421695  6.794435            0           0           0
      1.392312  0.795749  4.567612            0           0           0
      0.006039  3.232955  4.546709            0           0           0
      4.198882  0.812494  4.554307            0           0           0
      2.807505  3.244593  4.560407            0           0           0
      0.000000  1.615440  2.284570            0           0           0
     -1.399010  4.038600  2.284570            0           0           0
      2.798020  1.615440  2.284570            0           0           0
      1.399010  4.038600  2.284570            0           0           0
      0.000000  0.000000  0.000000            0           0           0
      4.197033  2.423150  0.000000            0           0           0
      2.798020  0.000000  0.000000            0           0           0
      1.399010  2.423150  0.000000            0           0           0

[...]

   9 f/i=   15.663781 THz    98.418437 2PiTHz  522.487471 cm-1    64.780214 meV
             X         Y         Z           dx          dy          dz
      1.920325  4.354072  9.214884    -0.068289    0.034926    0.020143
      3.932470  0.967172  7.897336     0.681133   -0.437562    0.370993
      5.147965  0.327653  8.890411    -0.382282    0.213847    0.093821
     -2.737057  4.829452  6.911509            0           0           0
     -1.372451  2.418984  6.864455            0           0           0
      2.834201  0.005010  6.864793            0           0           0
      1.430521  2.421695  6.794435            0           0           0
      1.392312  0.795749  4.567612            0           0           0
      0.006039  3.232955  4.546709            0           0           0
      4.198882  0.812494  4.554307            0           0           0
      2.807505  3.244593  4.560407            0           0           0
      0.000000  1.615440  2.284570            0           0           0
     -1.399010  4.038600  2.284570            0           0           0
      2.798020  1.615440  2.284570            0           0           0
      1.399010  4.038600  2.284570            0           0           0
      0.000000  0.000000  0.000000            0           0           0
      4.197033  2.423150  0.000000            0           0           0
      2.798020  0.000000  0.000000            0           0           0
      1.399010  2.423150  0.000000            0           0           0

 Eigenvectors after division by SQRT(mass)

 Eigenvectors and eigenvalues of the dynamical matrix

[...]

   8 f  =    3.050122 THz    19.164485 2PiTHz  101.741131 cm-1    12.614297 meV
             X         Y         Z           dx          dy          dz
      1.920325  4.354072  9.214884     0.174819    0.222816    0.110185
      3.932470  0.967172  7.897336     0.001687    0.000539   -0.002362
      5.147965  0.327653  8.890411     0.114458    0.208822   -0.004538
     -2.737057  4.829452  6.911509            0           0           0
     -1.372451  2.418984  6.864455            0           0           0
      2.834201  0.005010  6.864793            0           0           0
      1.430521  2.421695  6.794435            0           0           0
      1.392312  0.795749  4.567612            0           0           0
      0.006039  3.232955  4.546709            0           0           0
      4.198882  0.812494  4.554307            0           0           0
      2.807505  3.244593  4.560407            0           0           0
      0.000000  1.615440  2.284570            0           0           0
     -1.399010  4.038600  2.284570            0           0           0
      2.798020  1.615440  2.284570            0           0           0
      1.399010  4.038600  2.284570            0           0           0
      0.000000  0.000000  0.000000            0           0           0
      4.197033  2.423150  0.000000            0           0           0
      2.798020  0.000000  0.000000            0           0           0
      1.399010  2.423150  0.000000            0           0           0

   9 f/i=   15.663781 THz    98.418437 2PiTHz  522.487471 cm-1    64.780214 meV
             X         Y         Z           dx          dy          dz
      1.920325  4.354072  9.214884    -0.068289    0.034926    0.020143
      3.932470  0.967172  7.897336     0.681133   -0.437562    0.370993
      5.147965  0.327653  8.890411    -0.095570    0.053462    0.023455
     -2.737057  4.829452  6.911509            0           0           0
     -1.372451  2.418984  6.864455            0           0           0
      2.834201  0.005010  6.864793            0           0           0
      1.430521  2.421695  6.794435            0           0           0
      1.392312  0.795749  4.567612            0           0           0
      0.006039  3.232955  4.546709            0           0           0
      4.198882  0.812494  4.554307            0           0           0
      2.807505  3.244593  4.560407            0           0           0
      0.000000  1.615440  2.284570            0           0           0
     -1.399010  4.038600  2.284570            0           0           0
      2.798020  1.615440  2.284570            0           0           0
      1.399010  4.038600  2.284570            0           0           0
      0.000000  0.000000  0.000000            0           0           0
      4.197033  2.423150  0.000000            0           0           0
      2.798020  0.000000  0.000000            0           0           0
      1.399010  2.423150  0.000000            0           0           0

 Finite differences POTIM=   5.0000000000000000E-002
  LATTYP: Found a hexagonal cell.
 ALAT       =     5.5960428193
 C/A-ratio  =     3.6742347603

  Lattice vectors:

 A1 = (   5.5960430569,   0.0000000000,   0.0000000000)
 A2 = (  -2.7980215285,   4.8463151736,   0.0000000000)
 A3 = (   0.0000000000,   0.0000000000,  20.5611750468)
 Subroutine PRICEL returns:
 Original cell was already a primitive cell.

Analysis of symmetry for initial positions (statically):

 Routine SETGRP: Setting up the symmetry group for a
 hexagonal supercell.

 Subroutine GETGRP returns: Found  1 space group operations
 (whereof  1 operations were pure point group operations)
 out of a pool of 24 trial point group operations.

The static configuration has the point symmetry C_1 .

Analysis of symmetry for dynamics (positions and initial velocities):

[...]

The dynamic configuration has the point symmetry C_1 .

Analysis of constrained symmetry for selective dynamics:

 Subroutine DYNSYM returns: Found  1 space group operations
 (whereof  1 operations were pure point group operations)
 out of a pool of  1 trial space group operations
 (whereof  1 operations were pure point group operations)
 and found also     1 'primitive' translations

The constrained configuration has the point symmetry C_1 .

 mean value of Nose-termostat <S>:     1.000 mean value of <T> :     0.000
 mean temperature <T/S>/<1/S>  :     0.000