 INCAR:
 POTCAR:    US C
 POTCAR:    US C
   VRHFIN =C: s2p2
   GGA    =    -1.5891   -1.7004     .0187   -1.2720 eV

   TITEL  = US C
   POMASS =   12.011; ZVAL   =    4.000    mass and valenz
   ENMAX  =  286.567; ENMIN  =  214.925 eV

   QCUT   =   -4.589; QGAM   =    9.179    optimization parameters

   Description
     l     E      TYP  RCUT    TYP  RCUT
     0   .000     15  1.320    23  1.630
     0   .000     15  1.320    23  1.630
     1   .000     15  1.470    23  1.810
     1   .000     15  1.470    23  1.810
     2  -.100      7  1.630     7  1.630

  US C                                  :

 POSCAR: cubic diamond
  positions in direct lattice

 ion  position               nearest neighbor table
   1  0.000  0.000  0.000-   2 1.60   2 1.60   2 1.60   2 1.60
   2  0.250  0.250  0.250-   1 1.60   1 1.60   1 1.60   1 1.60

  LATTYP: Found a face centered cubic cell.
 ALAT       =     3.7000000000

  Lattice vectors:

 A1 = (   1.8500000000,   1.8500000000,   0.0000000000)
 A2 = (   0.0000000000,   1.8500000000,   1.8500000000)
 A3 = (   1.8500000000,   0.0000000000,   1.8500000000)
 Subroutine PRICEL returns:
 Original cell was already a primitive cell.

Analysis of symmetry for initial positions (statically):

 Routine SETGRP: Setting up the symmetry group for a
 face centered cubic supercell.

 Subroutine GETGRP returns: Found 48 space group operations
 (whereof 24 operations were pure point group operations)
 out of a pool of 48 trial point group operations.

The static configuration has the point symmetry T_d .
 The point group associated with its full space group is O_h .

Analysis of symmetry for dynamics (positions and initial velocities):

 Subroutine DYNSYM returns: Found 48 space group operations
 (whereof 24 operations were pure point group operations)
 out of a pool of 48 trial space group operations
 (whereof 24 operations were pure point group operations)
 and found also     1 'primitive' translations

The dynamic configuration has the point symmetry T_d .
 The point group associated with its full space group is O_h .

 KPOINTS: 4x4x4

Automatic generation of k-mesh.

 Subroutine IBZKPT returns following result:

 Found     10 irreducible k-points:

 Following reciprocal coordinates:
            Coordinates               Weight
  0.125000  0.125000  0.125000     96.000000
  0.375000  0.125000  0.125000    288.000000
 -0.375000  0.125000  0.125000    288.000000
 -0.125000  0.125000  0.125000    288.000000
  0.375000  0.375000  0.125000    288.000000
 -0.375000  0.375000  0.125000    576.000000
 -0.125000  0.375000  0.125000    576.000000
 -0.375000 -0.375000  0.125000    288.000000
  0.375000  0.375000  0.375000     96.000000
 -0.375000  0.375000  0.375000    288.000000

 Following cartesian coordinates:
            Coordinates               Weight
  0.125000  0.125000  0.125000     96.000000
  0.375000  0.375000 -0.125000    288.000000
 -0.375000 -0.375000  0.625000    288.000000
 -0.125000 -0.125000  0.375000    288.000000
  0.125000  0.625000  0.125000    288.000000
 -0.625000 -0.125000  0.875000    576.000000
 -0.375000  0.125000  0.625000    576.000000
  0.125000 -0.875000  0.125000    288.000000
  0.375000  0.375000  0.375000     96.000000
 -0.375000 -0.375000  1.125000    288.000000

 TETIRR: Found    102 inequivalent tetrahedra from     3072

 I would recommend the setting:
   dimension x,y,z NGX =    11 NGY =   11 NGZ =   11
 SYSTEM =  diamond
 POSCAR =  cubic diamond

 Startparameter for this run:
   NWRITE =      2    write-flag & timer
   PREC   = medium    medium, high low
   ISTART =      0    job   : 0-new  1-cont  2-samecut
   ICHARG =      2    charge: 1-file 2-atom 10-const
   ISPIN  =      1    spin polarized calculation?
   LNONCOLLINEAR =      F non collinear calculations
   LSORBIT =      F    spin-orbit coupling
   INIWAV =      1    electr: 0-lowe 1-rand  2-diag
   LASPH  =      F    aspherical Exc in radial PAW
   METAGGA=      F    non-selfconsistent MetaGGA calc.

 Electronic Relaxation 1
   ENCUT  =  286.6 eV  21.06 Ry    4.59 a.u.   3.61  3.61  3.61*2*pi/ulx,y,z
   ENINI  =  286.6     initial cutoff
   ENAUG  =  544.8 eV  augmentation charge cutoff
   NELM   =     60;   NELMIN=  2; NELMDL= -5     # of ELM steps
   EDIFF  = 0.1E-03   stopping-criterion for ELM
   LREAL  =      F    real-space projection
   LCOMPAT=      F    compatible to vasp.4.4
   LREAL_COMPAT= F    compatible to vasp.4.5.1-3
   GGA_COMPAT  = T    GGA compatible to vasp.4.4-vasp.4.6
   LMAXPAW     = -100 max onsite density
   LMAXMIX     =    2 max onsite mixed and CHGCAR
   VOSKOWN=      0    Vosko Wilk Nusair interpolation
   ROPT   =    0.00000
 Ionic relaxation
   EDIFFG = 0.1E-02   stopping-criterion for IOM
   NSW    =      0    number of steps for IOM
   NBLOCK =      1;   KBLOCK =      1    inner block; outer block
   IBRION =     -1    ionic relax: 0-MD 1-quasi-New 2-CG
   NFREE  =      0    steps in history (QN), initial steepest desc. (CG)
   ISIF   =      2    stress and relaxation
   IWAVPR =      0    prediction:  0-non 1-charg 2-wave 3-comb
   ISYM   =      1    0-nonsym 1-usesym 2-fastsym
   LCORR  =      T    Harris-Foulkes like correction to forces

   POTIM  =   0.50    time-step for ionic-motion
   TEIN   =    0.0    initial temperature
   TEBEG  =    0.0;   TEEND  =   0.0 temperature during run
   SMASS  =  -3.00    Nose mass-parameter (am)
   estimated Nose-frequenzy (Omega)   =  0.10E-29 period in steps =****** mass=  -0.156E-27a.u.
   NPACO  =    256;   APACO  = 16.0  distance and # of slots for P.C.
   PSTRESS=    0.0 pullay stress

  Mass of Ions in am
   POMASS =  12.01
  Ionic Valenz
   ZVAL   =   4.00
  Atomic Wigner-Seitz radii
   NELECT =       8.0000    total number of electrons
   NUPDOWN=      -1.0000    fix difference up-down

 DOS related values:
   EMIN   =  10.00;   EMAX   =-10.00  energy-range for DOS
   ISMEAR =    -5;   SIGMA  =   0.20  broadening in eV -4-tet -1-fermi 0-gaus

 Electronic relaxation 2 (details)
   IALGO  =     38    algorithm
   LDIAG  =      T    sub-space diagonalisation
   IMIX   =      4    mixing-type and parameters
     AMIX     =   0.80;   BMIX     =  1.00
     AMIX_MAG =   3.20;   BMIX_MAG =  1.00
     AMIN     =   0.10
     WC   =   100.;   INIMIX=   1;  MIXPRE=   1

 Intra band minimization:
   WEIMIN = 0.0000     energy-eigenvalue tresh-hold
   EBREAK =  0.31E-05  absolut break condition
   DEPER  =   0.30     relativ break condition

   TIME   =   0.10     timestep for ELM

  volume/ion in A,a.u.               =       6.33        42.73
  Fermi-wavevector in a.u.,eV,Ry     =   1.404720 26.847537  1.973238

 Second variation
   LSECVAR=     F    do a second variation

 Write flags
   LWAVE  =      T    write WAVECAR
   LCHARG =      T    write CHGCAR
   LVTOT  =      F    write LOCPOT, local potential
   LELF   =      F    write electronic localiz. function (ELF)
   LORBIT =      0    0 simple, 1 ext, 2 COOP (PROOUT)

 Dipole corrections
   IDIPOL =      0    1-x, 2-y, 3-z
   LDIPOL =      F    correct potential

 Static calculation
 charge density will be updated during run
 non-spin polarized calculation
 Variant of blocked Davidson
 Davidson routine will perform the subspace rotation
 performe sub-space diagonalisation
    after iterative eigenvector-optimisation
 modified Broyden-mixing scheme, WC =      100.0
 initial mixing is a Kerker type mixing with AMIX =  0.8000 and BMIX =      1.0000
 Hartree-type preconditioning will be used
 using additional bands             4
 reciprocal scheme for non local part
 calculate Harris-corrections to forces
   (improved forces if not selfconsistent)
 use of overlap-Matrix (Vanderbilt PP)
 Fermi weights with tetrahedron method with Bloechl corrections

  energy-cutoff  :      286.57
  volume of cell :       12.66
      direct lattice vectors                 reciprocal lattice vectors
     1.850000000  1.850000000  0.000000000     0.270270270  0.270270270 -0.270270270
     0.000000000  1.850000000  1.850000000    -0.270270270  0.270270270  0.270270270
     1.850000000  0.000000000  1.850000000     0.270270270 -0.270270270  0.270270270

  length of vectors
     2.616295090  2.616295090  2.616295090     0.468121840  0.468121840  0.468121840

 k-points in units of 2pi/SCALE and weight: 4x4x4
   0.12500000  0.12500000  0.12500000       0.031
   0.37500000  0.37500000 -0.12500000       0.094
  -0.37500000 -0.37500000  0.62500000       0.094
  -0.12500000 -0.12500000  0.37500000       0.094
   0.12500000  0.62500000  0.12500000       0.094
  -0.62500000 -0.12500000  0.87500000       0.188
  -0.37500000  0.12500000  0.62500000       0.188
   0.12500000 -0.87500000  0.12500000       0.094
   0.37500000  0.37500000  0.37500000       0.031
  -0.37500000 -0.37500000  1.12500000       0.094

 k-points in reciprocal lattice and weights: 4x4x4
   0.12500000  0.12500000  0.12500000       0.031
   0.37500000  0.12500000  0.12500000       0.094
  -0.37500000  0.12500000  0.12500000       0.094
  -0.12500000  0.12500000  0.12500000       0.094
   0.37500000  0.37500000  0.12500000       0.094
  -0.37500000  0.37500000  0.12500000       0.188
  -0.12500000  0.37500000  0.12500000       0.188
  -0.37500000 -0.37500000  0.12500000       0.094
   0.37500000  0.37500000  0.37500000       0.031
  -0.37500000  0.37500000  0.37500000       0.094

 position of ions in fractional coordinates (direct lattice)
   0.00000000  0.00000000  0.00000000
   0.25000000  0.25000000  0.25000000

 position of ions in cartesian coordinates  (Angst):
   0.00000000  0.00000000  0.00000000
   0.92500000  0.92500000  0.92500000

 k-point  1 :  0.12500.12500.1250  plane waves:    147
 k-point  2 :  0.37500.12500.1250  plane waves:    142
 k-point  3 :  -.37500.12500.1250  plane waves:    138
 k-point  4 :  -.12500.12500.1250  plane waves:    140
 k-point  5 :  0.37500.37500.1250  plane waves:    139
 k-point  6 :  -.37500.37500.1250  plane waves:    138
 k-point  7 :  -.12500.37500.1250  plane waves:    141
 k-point  8 :  -.3750-.37500.1250  plane waves:    137
 k-point  9 :  0.37500.37500.3750  plane waves:    144
 k-point 10 :  -.37500.37500.3750  plane waves:    137

 maximum number of plane-waves:    147
 maximal index in each direction:
   IXMAX=  3   IYMAX=  3   IZMAX=  3
   IXMIN= -3   IYMIN= -3   IZMIN= -3

 WARNING: wrap around error must be expected set NGX to  14
 WARNING: wrap around error must be expected set NGY to  14
 WARNING: wrap around error must be expected set NGZ to  14
Broyden mixing: mesh for mixing (old mesh)
   NGX =  7   NGY =  7   NGZ =  7
  (NGX  = 20   NGY  = 20   NGZ  = 20)
 gives a total of    343 points
 initial charge density was supplied:
 charge density of overlapping atoms calculated
 number of electron    8.0000000 magnetization
 keeping initial charge density in first step

 Maximum index for augmentation-charges          2315 (set IRDMAX)

 First call to EWALD:  gamma=   0.760
 Maximum number of real-space cells 3x 3x 3
 Maximum number of reciprocal cells 3x 3x 3

----------------------------------------- Iteration    1(   1)  ---------------------------------------

 BZINTS: Fermi energy: 13.563136;  8.000000 electrons
         Band energy:   2.898206;  BLOECHL correction: -0.155367

 eigenvalue-minimisations  :   176
 total energy-change (2. order) :-0.7525481E+01  (-0.3061419E+03)
 number of electron    8.0000000 magnetization
 augmentation part     8.0000000 magnetization

 Free energy of the ion-electron system (eV)
  alpha Z        PSCENC =        26.09947367
  Ewald energy   TEWEN  =      -335.43241631
  -1/2 Hartree   DENC   =       -19.56447502
  -V(xc)+E(xc)   XCENC  =        27.97875864
  PAW double counting   =         0.00000000        0.00000000
  entropy T*S    EENTRO =         0.00000000
  eigenvalues    EBANDS =         2.89820587
  atomic energy  EATOM  =       290.49497205
  free energy    TOTEN  =        -7.52548110 eV

  energy without entropy =       -7.52548110  energy(sigma->0) =       -7.52548110

[...]

 eigenvalue-minimisations  :   144
 total energy-change (2. order) :-0.3338563E-08  (-0.3338570E-08)
 number of electron    7.9999986 magnetization
 augmentation part     0.2723454 magnetization

 Broyden mixing:
  rms(total) = 0.41671E+00    rms(broyden)= 0.41500E+00
  rms(prec ) = 0.15823E+01
  weight for this iteration     100.00

[...]

 eigenvalue-minimisations  :   168
 total energy-change (2. order) : 0.5439142E+00  (-0.1165470E+00)
 number of electron    7.9999986 magnetization
 augmentation part     0.2537728 magnetization

[...]

 eigenvalues of (default mixing * dielectric matrix)
  average eigenvalue GAMMA=   1.0841
  1.0841

[...]

 Broyden mixing:
  rms(total) = 0.96741E-02    rms(broyden)= 0.96000E-02
  rms(prec ) = 0.26862E-01
  weight for this iteration     100.00

 eigenvalues of (default mixing * dielectric matrix)
  average eigenvalue GAMMA=   1.1520
  1.2620  1.0420

[...]

----------------------------------------- Iteration    1(   8)  ---------------------------------------

 BZINTS: Fermi energy:  7.352364;  8.000000 electrons
         Band energy:  -2.619552;  BLOECHL correction:  0.000000

 eigenvalue-minimisations  :   200
 total energy-change (2. order) : 0.5882983E-05  (-0.4642652E-05)
 number of electron    7.9999986 magnetization
 augmentation part     0.2535092 magnetization

 Free energy of the ion-electron system (eV)
  alpha Z        PSCENC =        26.09947367
  Ewald energy   TEWEN  =      -335.43241631
  -1/2 Hartree   DENC   =       -27.37766290
  -V(xc)+E(xc)   XCENC  =        28.80703072
  PAW double counting   =         0.00000000        0.00000000
  entropy T*S    EENTRO =         0.00000000
  eigenvalues    EBANDS =        -2.61955176
  atomic energy  EATOM  =       290.49497205
  free energy    TOTEN  =       -20.02815453 eV

  energy without entropy =      -20.02815453  energy(sigma->0) =      -20.02815453

 average (electrostatic) potential at core
  the test charge radii are     0.9482
  (the norm of the test charge is              1.0000)
       1 -44.2796       2 -44.2796

 E-fermi :   7.3524     XC(G=0): -12.9391     alpha+bet :-16.0076
   add alpha+bet to get absolut eigen values

 k-point   1 :       0.1250    0.1250    0.1250
  band No.  band energies     occupation
      1     -11.5520      2.00000
      2       5.7161      2.00000
      3       7.3340      2.00000
      4       7.3340      2.00000
      5      13.9034      0.00000
      6      13.9034      0.00000
      7      14.1926      0.00000
      8      19.5251      0.00000

[...]

 k-point  10 :      -0.3750    0.3750    0.3750
  band No.  band energies     occupation
      1      -5.8141      2.00000
      2      -2.7056      2.00000
      3       0.8767      2.00000
      4       4.1497      2.00000
      5      14.3002      0.00000
      6      18.6616      0.00000
      7      19.6464      0.00000
      8      21.2268      0.00000

 soft charge-density along one line, spin component            1
         0         1         2         3         4         5         6         7         8         9
x     7.7465    1.3223    0.0000   -0.0375   -0.0064    0.0000    0.0000
y     7.7465    1.3400    0.0000   -0.0481   -0.0078    0.0000    0.0000
z     7.7465    1.3415    0.0000   -0.0530   -0.0084    0.0000    0.0000
 total charge-density along one line
x     8.0000    1.4170    0.0000   -0.0826   -0.0624   -0.0080    0.0000   -0.0001   -0.0001    0.0000
x     0.0000
y     8.0000    1.4170    0.0000   -0.0826   -0.0624   -0.0080    0.0000   -0.0001   -0.0001    0.0000
y     0.0000
z     8.0000    1.4170    0.0000   -0.0826   -0.0624   -0.0080    0.0000   -0.0001   -0.0001    0.0000
z     0.0000

------------------------ aborting loop because EDIFF is reached ----------------------------------------

  FREE ENERGIE OF THE ION-ELECTRON SYSTEM (eV)
  free  energy   TOTEN  =       -20.028155 eV

  energy  without entropy=      -20.028155  energy(sigma->0) =      -20.028155

  FORCE on cell =-STRESS in cart. coord.  units (eV/reduce length):
  Direction    X        Y        Z        XY       YZ       ZX
  Alpha Z     26.10     26.10     26.10
  Ewald     -111.81   -111.81   -111.81      0.00      0.00      0.00
  Hartree      9.13      9.13      9.13      0.00      0.00      0.00
  E(xc)      -28.81    -28.81    -28.81      0.00      0.00      0.00
  Local      -13.01    -13.01    -13.01      0.00      0.00      0.00
  n-local     -0.98     -2.98     -2.50     -0.44      0.05      0.39
  augment      3.94      3.77      3.85     -0.15      0.02      0.09
  Kinetic    108.95    113.45    114.76     -0.79      0.07     -0.09
  Total       -4.31     -4.31     -4.31      0.00      0.00      0.00
  in kB     -545.79   -545.79   -545.79      0.00      0.00      0.00

 VOLUME and BASIS-vectors are now :
  energy-cutoff  :      286.57
  volume of cell :       12.66
      direct lattice vectors                 reciprocal lattice vectors
     1.850000000  1.850000000  0.000000000     0.270270270  0.270270270 -0.270270270
     0.000000000  1.850000000  1.850000000    -0.270270270  0.270270270  0.270270270
     1.850000000  0.000000000  1.850000000     0.270270270 -0.270270270  0.270270270

  length of vectors
     2.616295090  2.616295090  2.616295090     0.468121840  0.468121840  0.468121840

 FORCES acting on ions
    electron-ion (+dipol)            ewald-force                    non-local-force                 convergence-correction
   0.275E-05 0.275E-05 -.143E-05   0.279E-14 0.453E-14 0.350E-14   0.555E-16 0.364E-16 0.364E-16   -.494E-05 -.494E-05 -.428E-05
   -.275E-05 -.275E-05 0.143E-05   -.299E-14 -.488E-14 -.312E-14   -.590E-16 -.382E-16 -.278E-16   0.494E-05 0.494E-05 0.428E-05
   -.209E-13 -.144E-13 0.270E-14   -.204E-15 -.346E-15 0.384E-15   -.347E-17 -.173E-17 0.867E-17   0.244E-14 0.350E-14 0.415E-15

 POSITION                                       TOTAL-FORCE (eV/Angst)
      0.00000      0.00000      0.00000         0.000000      0.000000      0.000000
      0.92500      0.92500      0.92500         0.000000      0.000000      0.000000
    total drift:                                0.000000      0.000000      0.000000

 mean value of Nose-termostat <S>:     1.000 mean value of <T> :     0.000
 mean temperature <T/S>/<1/S>  :     0.000

 writing wavefunctions