 vasp.5.2.8 07Jul10 complex
 executed on             LinuxIFC date 2010.11.29  16:10:07

 INCAR:
 POTCAR:   PAW_PBE H_h 07Sep2000
 POTCAR:   PAW_PBE C_h 20Dec2001
 POTCAR:   PAW_PBE O_h 20Dec2001
 POTCAR:   PAW_PBE Si_h 08Apr2002
 POTCAR:   PAW_PBE H_h 07Sep2000
   VRHFIN =H: ultrasoft test

   TITEL  = PAW_PBE H_h 07Sep2000
   POMASS =    1.000; ZVAL   =    1.000    mass and valenz
   ENMAX  =  700.000; ENMIN  =  500.000 eV
   QCUT   =   -7.783; QGAM   =   15.567    optimization parameters

   Description
     l     E      TYP  RCUT    TYP  RCUT
     0   .000     23   .800
     0   .500     23   .800
     1  -.500     23   .800

 POTCAR:   PAW_PBE C_h 20Dec2001
   VRHFIN =C: s2p2

   TITEL  = PAW_PBE C_h 20Dec2001
   POMASS =   12.011; ZVAL   =    4.000    mass and valenz
   ENMAX  =  700.000; ENMIN  =  500.000 eV
   QCUT   =   -7.383; QGAM   =   14.767    optimization parameters

[...]

 POTCAR:   PAW_PBE O_h 20Dec2001
   VRHFIN =O: s2p4

   TITEL  = PAW_PBE O_h 20Dec2001
   POMASS =   16.000; ZVAL   =    6.000    mass and valenz
   ENMAX  =  700.000; ENMIN  =  500.000 eV
   QCUT   =   -7.501; QGAM   =   15.002    optimization parameters

[...]

 POTCAR:   PAW_PBE Si_h 08Apr2002
   VRHFIN =Si: s2p2

   TITEL  = PAW_PBE Si_h 08Apr2002
   POMASS =   28.085; ZVAL   =    4.000    mass and valenz
   ENMAX  =  380.146; ENMIN  =  285.109 eV
   QCUT   =   -5.286; QGAM   =   10.572    optimization parameters

   Description
     l     E      TYP  RCUT    TYP  RCUT
     0   .000     23  1.500
     0   .000     23  1.500
     1   .000     23  1.500
     1   .000     23  1.500
     2   .000     23  1.500

 Optimization of the real space projectors (new method)

 maximal supplied QI-value         = 47.24
 optimisation between [QCUT,QGAM] = [ 10.87, 21.73] = [ 33.06,132.25] Ry
 Optimized for a Real-space Cutoff    1.51 Angstroem

   l    n(q)    QCUT    max X(q) W(low)/X(q) W(high)/X(q)  e(spline)
   0     10    10.866     3.731    0.27E-04    0.86E-04    0.41E-06
   0     10    10.866    30.656    0.21E-03    0.43E-03    0.15E-05
   1      9    10.866     1.946    0.16E-03    0.89E-03    0.11E-05
 Optimization of the real space projectors (new method)

[...]

   l    n(q)    QCUT    max X(q) W(low)/X(q) W(high)/X(q)  e(spline)
   0     10    10.603     3.352    0.48E-04    0.27E-04    0.25E-06
   0     10    10.603   163.154    0.10E-03    0.31E-04    0.97E-06
   1     10    10.603     1.687    0.30E-04    0.10E-03    0.52E-06
   1     10    10.603    41.631    0.15E-03    0.55E-03    0.17E-05
 Optimization of the real space projectors (new method)

 maximal supplied QI-value         = 25.13
 optimisation between [QCUT,QGAM] = [ 10.81, 21.61] = [ 32.71,130.83] Ry
 Optimized for a Real-space Cutoff    1.16 Angstroem

   l    n(q)    QCUT    max X(q) W(low)/X(q) W(high)/X(q)  e(spline)
   0      7    10.807    13.202    0.17E-04    0.30E-04    0.96E-08
   0      7    10.807    60.399    0.25E-03    0.28E-04    0.11E-06
   1      7    10.807     7.835    0.78E-04    0.13E-03    0.35E-07
   1      7    10.807    44.729    0.23E-03    0.71E-03    0.15E-06
 PAW_PBE H_h 07Sep2000                  :
 PAW_PBE C_h 20Dec2001                  :
 PAW_PBE O_h 20Dec2001                  :
 PAW_PBE Si_h 08Apr2002                 :

 POSCAR: H 4   C 1   O 2   Si 1
  positions in direct lattice
  velocities in cartesian coordinates
 exchange correlation table for  LEXCH =        8
   RHO(1)=    0.500       N(1)  =     2000
   RHO(2)=  100.500       N(2)  =     4000

 ion  position               nearest neighbor table
   1  0.472  0.557  0.533-   6 1.00
   2  0.143  0.646  0.533-   8 1.49
   3  0.228  0.451  0.655-   8 1.50
   4  0.228  0.451  0.412-   8 1.50
   5  0.662  0.445  0.533-   7 1.15
   6  0.393  0.617  0.533-   1 1.00   8 1.67
   7  0.763  0.389  0.533-   5 1.15
   8  0.246  0.538  0.533-   2 1.49   4 1.50   3 1.50   6 1.67

  LATTYP: Found a simple cubic cell.
 ALAT       =    10.0000000000

  Lattice vectors:

 A1 = (  10.0000000000,   0.0000000000,   0.0000000000)
 A2 = (   0.0000000000,  10.0000000000,   0.0000000000)
 A3 = (   0.0000000000,   0.0000000000,  10.0000000000)
 Subroutine PRICEL returns:
 Original cell was already a primitive cell.

Analysis of symmetry for initial positions (statically):

 Routine SETGRP: Setting up the symmetry group for a
 simple cubic supercell.

 Subroutine GETGRP returns: Found  2 space group operations
 (whereof  1 operations were pure point group operations)
 out of a pool of 48 trial point group operations.

The static configuration has the point symmetry C_1 .
 The point group associated with its full space group is C_1h.

Analysis of symmetry for dynamics (positions and initial velocities):

 Subroutine DYNSYM returns: Found  2 space group operations
 (whereof  1 operations were pure point group operations)
 out of a pool of  2 trial space group operations
 (whereof  1 operations were pure point group operations)
 and found also     1 'primitive' translations

The dynamic configuration has the point symmetry C_1 .
 The point group associated with its full space group is C_1h.

 KPOINTS: 1x1x1

Automatic generation of k-mesh.

 Subroutine IBZKPT returns following result:

 Found      1 irreducible k-points:

 Following reciprocal coordinates:
            Coordinates               Weight
  0.000000  0.000000  0.000000      1.000000

 Following cartesian coordinates:
            Coordinates               Weight
  0.000000  0.000000  0.000000      1.000000

 Subroutine IBZKPT_HF returns following result:

 Found      1 k-points in 1st BZ
 the following      1 k-points will be used (e.g. in the exchange kernel)
 Following reciprocal coordinates:   # in IRBZ
  0.000000  0.000000  0.000000       1

 I would recommend the setting:
   dimension x,y,z NGX =    69 NGY =   69 NGZ =   69
 SYSTEM =  silanolo co
 POSCAR =  H 4   C 1   O 2   Si 1

 Startparameter for this run:
   NWRITE =      2    write-flag & timer
   PREC   = acc       medium, high low
   ISTART =      0    job   : 0-new  1-cont  2-samecut
   ICHARG =      2    charge: 1-file 2-atom 10-const
   ISPIN  =      1    spin polarized calculation?
   LNONCOLLINEAR =      F non collinear calculations
   LSORBIT =      F    spin-orbit coupling
   INIWAV =      1    electr: 0-lowe 1-rand  2-diag
   LASPH  =      F    aspherical Exc in radial PAW
   METAGGA=      F    non-selfconsistent MetaGGA calc.

 Electronic Relaxation 1
   ENCUT  =  450.0 eV  33.07 Ry    5.75 a.u.  17.30 17.30 17.30*2*pi/ulx,y,z
   ENINI  =  450.0     initial cutoff
   ENAUG  = 1000.0 eV  augmentation charge cutoff
   NELM   =     60;   NELMIN=  2; NELMDL=-12     # of ELM steps
   EDIFF  = 0.3E-09   stopping-criterion for ELM
   LREAL  =      T    real-space projection
   LCOMPAT=      F    compatible to vasp.4.4
   LREAL_COMPAT= F    compatible to vasp.4.5.1-3
   GGA_COMPAT  = T    GGA compatible to vasp.4.4-vasp.4.6
   LMAXPAW     = -100 max onsite density
   LMAXMIX     =    2 max onsite mixed and CHGCAR
   VOSKOWN=      0    Vosko Wilk Nusair interpolation
   ROPT   =   -0.00025  -0.00025  -0.00025  -0.00025
 Ionic relaxation
   EDIFFG = 0.3E-08   stopping-criterion for IOM
   NSW    =    100    number of steps for IOM
   NBLOCK =      1;   KBLOCK =    100    inner block; outer block
   IBRION =      6    ionic relax: 0-MD 1-quasi-New 2-CG
   NFREE  =      2    steps in history (QN), initial steepest desc. (CG)
   ISIF   =      2    stress and relaxation
   IWAVPR =     11    prediction:  0-non 1-charg 2-wave 3-comb
   ISYM   =      2    0-nonsym 1-usesym 2-fastsym
   LCORR  =      T    Harris-Foulkes like correction to forces

   POTIM  = 0.0030    time-step for ionic-motion
   TEIN   =    0.0    initial temperature
   TEBEG  =    0.0;   TEEND  =   0.0 temperature during run
   SMASS  =  -3.00    Nose mass-parameter (am)
   estimated Nose-frequenzy (Omega)   =  0.10E-29 period in steps =****** mass=  -0.229E-26a.u.
   NPACO  =    256;   APACO  = 16.0  distance and # of slots for P.C.
   PSTRESS=    0.0 pullay stress

  Mass of Ions in am
   POMASS =   1.00 12.01 16.00 28.09
  Ionic Valenz
   ZVAL   =   1.00  4.00  6.00  4.00
  Atomic Wigner-Seitz radii
  virtual crystal weights
   VCA    =   1.00  1.00  1.00  1.00
   NELECT =      24.0000    total number of electrons
   NUPDOWN=      -1.0000    fix difference up-down

 DOS related values:
   EMIN   =  10.00;   EMAX   =-10.00  energy-range for DOS
   EFERMI =   0.00
   ISMEAR =     0;   SIGMA  =   0.10  broadening in eV -4-tet -1-fermi 0-gaus

 Electronic relaxation 2 (details)
   IALGO  =     48    algorithm
   LDIAG  =      T    sub-space diagonalisation (order eigenvalues)
   LSUBROT=      T    optimize rotation matrix (better conditioning)
   IMIX   =      4    mixing-type and parameters
     AMIX     =   0.40;   BMIX     =  1.00
     AMIX_MAG =   1.60;   BMIX_MAG =  1.00
     AMIN     =   0.10
     WC   =   100.;   INIMIX=   1;  MIXPRE=   1

 Intra band minimization:
   WEIMIN = 0.0010     energy-eigenvalue tresh-hold
   EBREAK =  0.40E-11  absolut break condition
   DEPER  =   0.30     relativ break condition

   TIME   =   0.40     timestep for ELM

  volume/ion in A,a.u.               =     125.00       843.54
  Fermi-wavevector in a.u.,A,eV,Ry     =   0.472221  0.892368  3.033999  0.222993
  Thomas-Fermi vector in A             =   1.465300

 Write flags
   LWAVE  =      T    write WAVECAR
   LCHARG =      T    write CHGCAR
   LVTOT  =      F    write LOCPOT, total local potential
   LVHAR  =      F    write LOCPOT, Hartree potential only
   LELF   =      F    write electronic localiz. function (ELF)
   LORBIT =      0    0 simple, 1 ext, 2 COOP (PROOUT)

 Dipole corrections
   LMONO  =      F    monopole corrections only (constant potential shift)
   LDIPOL =      F    correct potential (dipole corrections)
   IDIPOL =      0    1-x, 2-y, 3-z, 4-all directions
   EPSILON=  1.0000000 bulk dielectric constant

 Exchange correlation treatment:
   GGA     =    --    GGA type
   VOSKOWN=      0    Vosko Wilk Nusair interpolation
   LHFCALC =     F    Hartree Fock is set to
   LHFONE  =     F    Hartree Fock one center treatment
   AEXX    =    0.0000 exact exchange contribution

 Linear response parameters
   LEPSILON=     F    determine dielectric tensor
   LRPA    =     F    only Hartree local field effects (RPA)
   LNABLA  =     F    use nabla operator in PAW spheres
   LVEL    =     F    velocity operator in full k-point grid
   LINTERFAST=   F  fast interpolation
   KINTER  =     0    interpolate to denser k-point grid
   CSHIFT  =0.1000    complex shift for real part using Kramers Kronig
   OMEGAMAX=  -1.0    maximum frequency
   RTIME   =    0.100 relaxation time in fs

 Orbital magnetization related:
   ORBITALMAG=     F  switch on orbital magnetization
   LCHIMAG   =     F  perturbation theory with respect to B field

 finite differences with symmetry
 charge density and potential will be updated during run
 non-spin polarized calculation
 RMM-DIIS sequential band-by-band
 perform sub-space diagonalisation
    before iterative eigenvector-optimisation
 modified Broyden-mixing scheme, WC =      100.0
[...]

  FORCE on cell =-STRESS in cart. coord.  units (eV):
  Direction    XX          YY          ZZ          XY          YZ          ZX
  Alpha Z     1.35899     1.35899     1.35899
  Ewald     668.81446   -54.97186  -334.83060  -163.21250     0.29684     0.32585
  Hartree   797.09133   310.92528   141.46906   -79.35591     0.03182     0.09581
  E(xc)     -97.26395   -98.19285   -98.73938    -0.59599    -0.00237    -0.00003
  Local   -1852.89649  -668.13918  -238.03420   227.98380    -0.28817    -0.38619
  n-local    -7.07312    -7.77089    -9.31893     0.57701     0.04369     0.01134
  augment    -0.20868    -0.24569    -0.12761    -0.01411    -0.00141    -0.00060
  Kinetic   464.25715   490.49151   510.94049    14.37512    -0.03538    -0.04164
  Fock        0.00000     0.00000     0.00000     0.00000     0.00000     0.00000
  Total     -25.92030   -26.54471   -27.28218    -0.24256     0.04502     0.00453
  in kB     -41.52892   -42.52933   -43.71089    -0.38863     0.07213     0.00726

 VOLUME and BASIS-vectors are now :
  energy-cutoff  :      450.00
  volume of cell :     1000.00
      direct lattice vectors                 reciprocal lattice vectors
    10.000000000  0.000000000  0.000000000     0.100000000  0.000000000  0.000000000
     0.000000000 10.000000000  0.000000000     0.000000000  0.100000000  0.000000000
     0.000000000  0.000000000 10.000000000     0.000000000  0.000000000  0.100000000

  length of vectors
    10.000000000 10.000000000 10.000000000     0.100000000  0.100000000  0.100000000

 FORCES acting on ions
    electron-ion (+dipol)            ewald-force                    non-local-force                 convergence-correction
   -.617E+02 0.379E+02 -.135E-01   0.675E+02 -.420E+02 0.142E-01   -.578E+01 0.410E+01 -.782E-03   0.289E-05 -.147E-05 -.122E-06
   0.284E+02 -.243E+02 -.506E-01   -.305E+02 0.265E+02 0.514E-01   0.208E+01 -.219E+01 -.835E-02   -.213E-05 0.165E-05 0.478E-06
   0.106E+02 0.219E+02 -.292E+02   -.110E+02 -.236E+02 0.315E+02   0.357E+00 0.168E+01 -.238E+01   -.839E-06 -.136E-05 0.440E-05
   0.106E+02 0.220E+02 0.292E+02   -.110E+02 -.237E+02 -.316E+02   0.362E+00 0.171E+01 0.239E+01   -.652E-06 -.135E-05 -.380E-05
   0.161E+03 -.889E+02 -.913E-02   -.183E+03 0.101E+03 0.878E-02   0.220E+02 -.123E+02 -.146E-03   -.759E-05 0.415E-05 0.766E-06
   -.284E+02 -.112E+03 -.128E+00   0.259E+02 0.152E+03 0.217E+00   0.250E+01 -.403E+02 -.979E-01   0.164E-05 0.923E-05 -.349E-05
   -.196E+03 0.125E+03 -.915E-02   0.240E+03 -.150E+03 0.970E-02   -.440E+02 0.248E+02 -.418E-03   0.131E-04 -.861E-05 0.541E-06
   0.962E+02 0.395E+02 0.215E+00   -.980E+02 -.405E+02 -.202E+00   0.176E+01 0.959E+00 0.753E-01   -.652E-05 -.282E-05 0.264E-05
   0.207E+02 0.216E+02 0.220E-01   -.284E-13 -.426E-13 -.394E-14   -.207E+02 -.216E+02 -.170E-01   -.144E-06 -.573E-06 0.141E-05

 POSITION                                       TOTAL-FORCE (eV/Angst)
      4.72309      5.56556      5.33333         0.000122      0.003557     -0.000722
      1.43050      6.45631      5.33333        -0.002268     -0.001105     -0.008224
      2.28307      4.51117      6.54530         0.003979      0.016775     -0.033466
      2.28307      4.51117      4.12136        -0.001419     -0.018677     -0.035038
      6.62421      4.45271      5.33333         0.003737      0.000967     -0.001126
      3.93343      6.17225      5.33333        -0.001117      0.006278     -0.009301
      7.62788      3.88767      5.33333        -0.002078     -0.008660     -0.000483
      2.46073      5.37695      5.33033        -0.000955      0.000865      0.088360
    total drift:                                0.002258      0.000477      0.004982
 d Force =-0.2626645E-04[-0.530E-03, 0.478E-03]  d Energy =-0.2603832E-04-0.228E-06
 d Force =-0.9973339E-09[ 0.121E-02,-0.121E-02]  d Ewald  =-0.9973746E-09 0.568E-13

 Finite differences progress:
  Degree of freedom:  21/ 21
  Displacement:        2/  2
  Total:              42/ 42

 INTERNAL STRAIN TENSORS FROM DISPLACED ATOMS

 INTERNAL STRAIN TENSOR FOR ION    1 for displacements in x,y,z  (eV/Angst):
          X           Y           Z          XY          YZ          ZX
  x   -23.96288    -9.68045     1.18627    16.07456     0.00000     0.00000
  y    11.55799     7.00361    -1.00708   -11.94197     0.00000     0.00000
  z     0.00000     0.00000     0.00000     0.00000    -0.99148     1.35897

[...]

 INTERNAL STRAIN TENSOR FOR ION    8 for displacements in x,y,z  (eV/Angst):
          X           Y           Z          XY          YZ          ZX
  x    21.56151    -4.30535    -2.97233    20.03456     0.00000     0.00000
  y    15.68126     3.88210   -14.22325    -1.31439     0.00000     0.00000
  z     0.00000     0.00000     0.00000     0.00000   -14.49171    -3.07863

 SECOND DERIVATIVES (NOT SYMMETRIZED)
               1X          1Y          1Z          2X          2Y          2Z          3X          3Y          3Z          4X          4Y          4Z          5X          5Y          5Z          6X          6Y          6Z          7X          7Y          7Z          8X          8Y          8Z
  1X   -32.225272   21.293985    0.000000    0.083149    0.185072    0.000000   -0.232488   -0.060189    0.026599   -0.232488   -0.060189   -0.026599    0.452110    0.048333    0.000000   30.184993  -20.561945    0.000000   -0.582918    0.169080    0.000000    2.406456   -0.977781    0.000000
  1Y    21.294071  -18.520215    0.000000    0.233472    0.011603    0.000000    0.045429    0.099615   -0.018903    0.045429    0.099615    0.018903   -0.010496    0.402788    0.000000  -23.300687   18.381226    0.000000    0.199912   -0.305954    0.000000    1.423538   -0.313851    0.000000
  1Z     0.000000    0.000000   -0.590923    0.000000    0.000000   -0.109359    0.036569   -0.003797    0.012413   -0.036569    0.003797    0.012413    0.000000    0.000000    0.433942    0.000000    0.000000    0.349589    0.000000    0.000000   -0.190177    0.000000    0.000000    0.039365
  2X     0.083405    0.229012    0.000000   -9.344655    7.428528    0.000000   -0.277695   -0.091159    0.005825   -0.277695   -0.091159   -0.005825   -0.027000   -0.016816    0.000000    1.426923   -0.808752    0.000000    0.017177   -0.022178    0.000000    8.256152   -6.624929    0.000000
  2Y     0.179736    0.016125    0.000000    7.426689   -9.989905    0.000000   -0.446321    0.319102   -0.053771   -0.446321    0.319102    0.053771   -0.010611    0.023219    0.000000    0.485325   -0.686525    0.000000    0.017851   -0.041526    0.000000   -7.313947    9.923598    0.000000
  2Z     0.000000    0.000000   -0.109923    0.000000    0.000000   -1.882469    0.591210   -0.796892   -0.179560   -0.591210    0.796892   -0.179560    0.000000    0.000000    0.009692    0.000000    0.000000   -0.283898    0.000000    0.000000   -0.007013    0.000000    0.000000    2.582868
  3X    -0.233681    0.043344    0.038177   -0.280064   -0.442730    0.592938   -2.194434   -1.023581    1.231194   -0.403856   -0.037771    0.009500   -0.040066    0.008999    0.000875    0.358659    1.016618   -0.958762    0.003245   -0.021748    0.000325    2.628194    0.487264   -0.909612
  3Y    -0.060444    0.102014   -0.004556   -0.087281    0.317872   -0.797929   -1.024999   -6.697013    6.660254   -0.037168   -0.541779    0.513253   -0.032047    0.039070    0.000384    0.557461    0.022868   -0.492779    0.037242   -0.052241   -0.001194    0.570593    6.682529   -5.886289
  3Z     0.027245   -0.019654    0.012312    0.006060   -0.054425   -0.179599    1.233593    6.661108  -11.442425   -0.007689   -0.515074    0.784160    0.003282   -0.000386    0.005630   -0.159734   -0.071369   -0.433295   -0.012750    0.005240   -0.005184   -1.084224   -6.013259   11.212157
  4X    -0.233681    0.043344   -0.038177   -0.280064   -0.442730   -0.592938   -0.403856   -0.037771   -0.009500   -2.194434   -1.023581   -1.231194   -0.040066    0.008999   -0.000875    0.358659    1.016618    0.958762    0.003245   -0.021748   -0.000325    2.628194    0.487264    0.909612
  4Y    -0.060444    0.102014    0.004556   -0.087281    0.317872    0.797929   -0.037168   -0.541779   -0.513253   -1.024999   -6.697013   -6.660254   -0.032047    0.039070   -0.000384    0.557461    0.022868    0.492779    0.037242   -0.052241    0.001194    0.570593    6.682529    5.886289
  4Z    -0.027245    0.019654    0.012312   -0.006060    0.054425   -0.179599    0.007689    0.515074    0.784160   -1.233593   -6.661108  -11.442425   -0.003282    0.000386    0.005630    0.159734    0.071369   -0.433295    0.012750   -0.005240   -0.005184    1.084224    6.013259   11.212157
  5X     0.452846    0.011973    0.000000   -0.027900    0.017221    0.000000   -0.037645   -0.008113    0.003261   -0.037645   -0.008113   -0.003261  -95.705452   53.468448    0.000000    0.248720   -0.351640    0.000000   94.815375  -52.983312    0.000000    0.149797   -0.007066    0.000000
  5Y     0.062864    0.362718    0.000000    0.001866   -0.021066    0.000000    0.024409   -0.003918    0.000871    0.024409   -0.003918   -0.000871   53.543586  -30.966147    0.000000   -0.299532   -0.060169    0.000000  -52.955365   30.242738    0.000000   -0.276475   -0.019587    0.000000
  5Z     0.000000    0.000000    0.424569    0.000000    0.000000    0.002802   -0.000355    0.000997   -0.002005    0.000355   -0.000997   -0.002005    0.000000    0.000000   -0.781610    0.000000    0.000000   -0.280592    0.000000    0.000000    0.533724    0.000000    0.000000   -0.004063
  6X    30.181313  -23.323970    0.000000    1.425373    0.462012    0.000000    0.357792    0.530743   -0.159142    0.357792    0.530743    0.159142    0.245131   -0.339154    0.000000  -52.567583   13.041105    0.000000    0.338419   -0.156187    0.000000   19.492770    9.021392    0.000000
  6Y   -20.596116   18.421357    0.000000   -0.836714   -0.647011    0.000000    0.985878    0.063031   -0.070871    0.985878    0.063031    0.070871   -0.407270    0.021259    0.000000   13.095157  -25.710275    0.000000    0.066081    0.011543    0.000000    6.436532    7.964178    0.000000
  6Z     0.000000    0.000000    0.400406    0.000000    0.000000   -0.235944   -0.959886   -0.491028   -0.384979    0.959886    0.491028   -0.384979    0.000000    0.000000   -0.224598    0.000000    0.000000   -1.870955    0.000000    0.000000    0.084710    0.000000    0.000000    2.959414
  7X    -0.522970    0.193547    0.000000    0.076674    0.016412    0.000000    0.066585    0.032548   -0.012643    0.066585    0.032548    0.012643   94.874728  -52.973216    0.000000    0.401850    0.094281    0.000000  -94.053941   52.766555    0.000000   -0.570606   -0.215331    0.000000
  7Y     0.157286   -0.260764    0.000000   -0.030581   -0.000192    0.000000   -0.033861   -0.009299    0.006386   -0.033861   -0.009299   -0.006386  -53.021782   30.328698    0.000000   -0.143115    0.016440    0.000000   52.805337  -29.826558    0.000000    0.170962   -0.021785    0.000000
  7Z     0.000000    0.000000   -0.186245    0.000000    0.000000    0.003304   -0.000908   -0.000394    0.003554    0.000908    0.000394    0.003554    0.000000    0.000000    0.548123    0.000000    0.000000    0.042624    0.000000    0.000000   -0.396560    0.000000    0.000000   -0.007742
  8X     2.498041    1.508765    0.000000    8.347488   -7.223785    0.000000    2.721741    0.657521   -1.085594    2.721741    0.657521    1.085594    0.240615   -0.205592    0.000000   19.587779    6.553715    0.000000   -0.540602    0.269538    0.000000  -34.990957   -2.170813    0.000000
  8Y    -0.976951   -0.223250    0.000000   -6.620171   10.010828    0.000000    0.486634    6.770260   -6.010712    0.486634    6.770260    6.010712   -0.029334    0.112043    0.000000    9.047931    8.013567    0.000000   -0.208298    0.024239    0.000000   -1.581796  -30.897611    0.000000
  8Z     0.000000    0.000000    0.037492    0.000000    0.000000    2.580864   -0.907912   -5.885066   11.208842    0.907912    5.885066   11.208842    0.000000    0.000000    0.003192    0.000000    0.000000    2.909822    0.000000    0.000000   -0.014316    0.000000    0.000000  -27.994157

 Eigenvectors and eigenvalues of the dynamical matrix

   1 f  =  111.285657 THz   699.228404 2PiTHz 3712.089829 cm-1   460.240647 meV
             X         Y         Z           dx          dy          dz
      4.723092  5.565557  5.333333     0.782355   -0.573920    0.000000
      1.430504  6.456305  5.333333     0.004827   -0.003207    0.000000
      2.283072  4.511173  6.545304     0.004087    0.003273   -0.001556
      2.283072  4.511173  4.121363     0.004087    0.003273    0.001556
      6.624210  4.452710  5.333333    -0.003203    0.001668    0.000000
      3.933432  6.172253  5.333333    -0.197621    0.139082    0.000000
      7.627884  3.887667  5.333333     0.003914   -0.002114    0.000000
      2.460731  5.376950  5.333333    -0.001635    0.002953    0.000000

[...]

  19 f  =    0.723357 THz     4.544987 2PiTHz   24.128596 cm-1     2.991566 meV
             X         Y         Z           dx          dy          dz
      4.723092  5.565557  5.333333     0.000000    0.000000   -0.015678
      1.430504  6.456305  5.333333     0.000000    0.000000   -0.290423
      2.283072  4.511173  6.545304    -0.124823    0.040661   -0.141292
      2.283072  4.511173  4.121363     0.124823   -0.040661   -0.141292
      6.624210  4.452710  5.333333     0.000000    0.000000   -0.229400
      3.933432  6.172253  5.333333     0.000000    0.000000   -0.110454
      7.627884  3.887667  5.333333     0.000000    0.000000   -0.355024
      2.460731  5.376950  5.333333     0.000000    0.000000   -0.806317

  20 f/i=    0.404221 THz     2.539795 2PiTHz   13.483359 cm-1     1.671724 meV
             X         Y         Z           dx          dy          dz
      4.723092  5.565557  5.333333     0.021374   -0.125997    0.000000
      1.430504  6.456305  5.333333     0.028801   -0.093833    0.000000
      2.283072  4.511173  6.545304     0.003510   -0.103198    0.000820
      2.283072  4.511173  4.121363     0.003510   -0.103198   -0.000820
      6.624210  4.452710  5.333333     0.044053   -0.349334    0.000000
      3.933432  6.172253  5.333333     0.094717   -0.493343    0.000000
      7.627884  3.887667  5.333333    -0.001987   -0.497113    0.000000
      2.460731  5.376950  5.333333     0.081965   -0.567918    0.000000

[...]

  24 f/i=    1.969274 THz    12.373314 2PiTHz   65.687910 cm-1     8.144266 meV
             X         Y         Z           dx          dy          dz
      4.723092  5.565557  5.333333     0.037326    0.063180    0.000000
      1.430504  6.456305  5.333333     0.039780    0.064688    0.000000
      2.283072  4.511173  6.545304     0.047075    0.067344   -0.000859
      2.283072  4.511173  4.121363     0.047075    0.067344    0.000859
      6.624210  4.452710  5.333333    -0.283390   -0.224694    0.000000
      3.933432  6.172253  5.333333     0.170662    0.283987    0.000000
      7.627884  3.887667  5.333333    -0.491164   -0.548877    0.000000
      2.460731  5.376950  5.333333     0.236650    0.369137    0.000000

  LATTYP: Found a simple cubic cell.
 ALAT       =    10.0000000000

  Lattice vectors:

 A1 = (  10.0000000000,   0.0000000000,   0.0000000000)
 A2 = (   0.0000000000,  10.0000000000,   0.0000000000)
 A3 = (   0.0000000000,   0.0000000000,  10.0000000000)
 Subroutine PRICEL returns:
 Original cell was already a primitive cell.

Analysis of symmetry for initial positions (statically):

 Routine SETGRP: Setting up the symmetry group for a
 simple cubic supercell.

 Subroutine GETGRP returns: Found  2 space group operations
 (whereof  1 operations were pure point group operations)
 out of a pool of 48 trial point group operations.

The static configuration has the point symmetry C_1 .
 The point group associated with its full space group is C_1h.

Analysis of symmetry for dynamics (positions and initial velocities):

 Subroutine DYNSYM returns: Found  2 space group operations
 (whereof  1 operations were pure point group operations)
 out of a pool of  2 trial space group operations
 (whereof  1 operations were pure point group operations)
 and found also     1 'primitive' translations

The dynamic configuration has the point symmetry C_1 .
 The point group associated with its full space group is C_1h.

 KPOINTS: 1x1x1

Automatic generation of k-mesh.

 Subroutine IBZKPT returns following result:

 Found      1 irreducible k-points:

 Following reciprocal coordinates:
            Coordinates               Weight
  0.000000  0.000000  0.000000      1.000000

 Following cartesian coordinates:
            Coordinates               Weight
  0.000000  0.000000  0.000000      1.000000

 writing wavefunctions