     Program PWSCF v.4.2.1      starts on 17Dec2010 at 16: 3:55

     This program is part of the open-source Quantum ESPRESSO suite
     for quantum simulation of materials; please acknowledge
         "P. Giannozzi et al., J. Phys.:Condens. Matter 21 395502 (2009);
     in publications or presentations arising from this work. More details at

     Current dimensions of program PWSCF are:
     Max number of different atomic species (ntypx) = 10
     Max number of k-points (npk) =  40000
     Max angular momentum in pseudopotentials (lmaxx) =  3
     Waiting for input...

     Subspace diagonalization in iterative solution of the eigenvalue problem:
     a serial algorithm will be used

     warning: symmetry operation #  2 not allowed.   fractional translation:
       0.0000000  0.0000000 -0.5000000  in crystal coordinates
     warning: symmetry operation #  5 not allowed.   fractional translation:
       0.0000000  0.0000000 -0.5000000  in crystal coordinates
     warning: symmetry operation #  6 not allowed.   fractional translation:
       0.0000000  0.0000000 -0.5000000  in crystal coordinates

     Planes per process (thick) : nr3 =  75 npp =    5 ncplane = 11664
     Planes per process (smooth): nr3s=  54 npps=    4 ncplanes=  5184

     Proc/  planes cols     G    planes cols    G      columns  G
     Pool       (dense grid)       (smooth grid)      (wavefct grid)
        1     5    427    21347    4    214     7560     60     1094
        2     5    427    21347    4    214     7560     60     1094
        3     5    427    21347    4    214     7560     60     1094
        4     5    427    21347    4    214     7562     60     1094
        5     5    427    21347    4    214     7562     60     1094
        6     5    428    21348    4    214     7556     59     1093
        7     5    428    21348    3    214     7554     59     1093
        8     5    428    21348    3    214     7550     59     1093
        9     5    427    21347    3    214     7556     59     1093
       10     5    428    21348    3    214     7554     59     1093
       11     5    428    21348    3    214     7544     59     1093
       12     4    428    21348    3    215     7551     59     1093
       13     4    428    21348    3    215     7555     59     1093
       14     4    428    21348    3    215     7555     61     1093
       15     4    428    21348    3    214     7554     61     1093
       16     4    427    21345    3    214     7554     61     1093
     tot     75   6841   341559   54   3427   120887    955    17493

     Title:
     HAP_fullopt_40_r1.fullopt.in

     bravais-lattice index     =            4
     lattice parameter (a_0)   =      17.6285  a.u.
     unit-cell volume          =    3534.3479 (a.u.)^3
     number of atoms/cell      =           44
     number of atomic types    =            4
     number of electrons       =       288.00
     number of Kohn-Sham states=          144
     kinetic-energy cutoff     =      40.0000  Ry
     charge density cutoff     =     320.0000  Ry
     convergence threshold     =      1.0E-08
     mixing beta               =       0.7000
     number of iterations used =            8  plain     mixing
     Exchange-correlation      =  SLA  PW   PBE  PBE (1434)
     EXX-fraction              =        0.00
     nstep                     =           50

     celldm(1)=  17.628530  celldm(2)=   0.000000  celldm(3)=   0.744955
     celldm(4)=   0.000000  celldm(5)=   0.000000  celldm(6)=   0.000000

     crystal axes: (cart. coord. in units of a_0)
               a(1) = (  1.000000  0.000000  0.000000 )
               a(2) = ( -0.500000  0.866025  0.000000 )
               a(3) = (  0.000000  0.000000  0.744955 )

     reciprocal axes: (cart. coord. in units 2 pi/a_0)
               b(1) = (  1.000000  0.577350  0.000000 )
               b(2) = (  0.000000  1.154701  0.000000 )
               b(3) = (  0.000000  0.000000  1.342362 )

     PseudoPot. # 1 for Ca read from file Ca.pbe-nsp-van.UPF
     Pseudo is Ultrasoft + core correction, Zval = 10.0
     Generated by new atomic code, or converted to UPF format
     Using radial grid of  845 points,  6 beta functions with:
                l(1) =   0
                l(2) =   0
                l(3) =   1
                l(4) =   1
                l(5) =   2
                l(6) =   2
     Q(r) pseudized with  6 coefficients,  rinner =    1.200   1.200   1.200
                                                       1.200   1.200

     PseudoPot. # 2 for P  read from file P.pbe-van_ak.UPF
     Pseudo is Ultrasoft, Zval =  5.0
     Generated by new atomic code, or converted to UPF format
     Using radial grid of  807 points,  6 beta functions with:
                l(1) =   0
                l(2) =   0
                l(3) =   1
                l(4) =   1
                l(5) =   2
                l(6) =   2
     Q(r) pseudized with  8 coefficients,  rinner =    1.100   1.100   1.100
                                                       1.100   1.100

     PseudoPot. # 3 for O  read from file O.pbe-van_ak.UPF
     Pseudo is Ultrasoft, Zval =  6.0
     Generated by new atomic code, or converted to UPF format
     Using radial grid of  737 points,  4 beta functions with:
                l(1) =   0
                l(2) =   0
                l(3) =   1
                l(4) =   1
     Q(r) pseudized with  8 coefficients,  rinner =    0.800   0.800   0.800

     PseudoPot. # 4 for H  read from file H.pbe-van_ak.UPF
     Pseudo is Ultrasoft, Zval =  1.0
     Generated by new atomic code, or converted to UPF format
     Using radial grid of  615 points,  1 beta functions with:
                l(1) =   0
     Q(r) pseudized with  8 coefficients,  rinner =    0.800

     atomic species   valence    mass     pseudopotential
        Ca            10.00    20.00000     Ca( 1.00)
        P              5.00    15.00000     P ( 1.00)
        O              6.00     8.00000     O ( 1.00)
        H              1.00     1.00000     H ( 1.00)

      3 Sym.Ops. (no inversion)

   Cartesian axes

     site n.     atom                  positions (a_0 units)
         1           Ca  tau(  1) = (   0.5000000  -0.2886751  -0.0018296  )
         2           Ca  tau(  2) = (  -0.5000000   0.2886751   0.3706481  )
         3           Ca  tau(  3) = (  -0.5000000   0.2886751   0.0001849  )
         4           Ca  tau(  4) = (   0.5000000  -0.2886751  -0.3722928  )
         5           Ca  tau(  5) = (   0.2493986  -0.0086855   0.1856962  )
         6           Ca  tau(  6) = (  -0.2493986   0.0086855  -0.1867815  )
         7           Ca  tau(  7) = (  -0.1171775   0.2203283   0.1856962  )
         8           Ca  tau(  8) = (  -0.1322212  -0.2116428   0.1856962  )
         9           Ca  tau(  9) = (   0.1322212   0.2116428  -0.1867815  )
        10           Ca  tau( 10) = (   0.1171775  -0.2203283  -0.1867815  )
        11           P   tau( 11) = (   0.2113966   0.3167948   0.1866531  )
        12           P   tau( 12) = (  -0.2113966  -0.3167948  -0.1858247  )
        13           P   tau( 13) = (  -0.3800506   0.0246774   0.1866531  )
        14           P   tau( 14) = (   0.1686540  -0.3414722   0.1866531  )
        15           P   tau( 15) = (  -0.1686540   0.3414722  -0.1858247  )
        16           P   tau( 16) = (   0.3800506  -0.0246774  -0.1858247  )
        17           O   tau( 17) = (   0.0777730   0.4158784   0.1885511  )
        18           O   tau( 18) = (  -0.0777730  -0.4158784  -0.1839267  )
        19           O   tau( 19) = (  -0.3990478  -0.1405859   0.1885511  )
        20           O   tau( 20) = (   0.3212748  -0.2752926   0.1885511  )
        21           O   tau( 21) = (  -0.3212748   0.2752926  -0.1839267  )
        22           O   tau( 22) = (   0.3990478   0.1405859  -0.1839267  )
        23           O   tau( 23) = (  -0.6464895   0.4034239   0.1810726  )
        24           O   tau( 24) = (   0.6464895  -0.4034239  -0.1914051  )
        25           O   tau( 25) = (  -0.5261306   0.1044372   0.1810726  )
        26           O   tau( 26) = (  -0.3273799   0.3581643   0.1810726  )
        27           O   tau( 27) = (   0.3273799  -0.3581643  -0.1914051  )
        28           O   tau( 28) = (   0.5261306  -0.1044372  -0.1914051  )
        29           O   tau( 29) = (   0.2077025   0.2164083   0.0548754  )
        30           O   tau( 30) = (  -0.2077025  -0.2164083  -0.3176023  )
        31           O   tau( 31) = (  -0.2912664   0.0716715   0.0548754  )
        32           O   tau( 32) = (   0.0835638  -0.2880798   0.0548754  )
        33           O   tau( 33) = (  -0.0835638   0.2880798  -0.3176023  )
        34           O   tau( 34) = (   0.2912664  -0.0716715  -0.3176023  )
        35           O   tau( 35) = (  -0.2199308  -0.2222259  -0.0503244  )
        36           O   tau( 36) = (   0.2199308   0.2222259   0.3221533  )
        37           O   tau( 37) = (   0.3024187  -0.0793527  -0.0503244  )
        38           O   tau( 38) = (  -0.0824879   0.3015786  -0.0503244  )
        39           O   tau( 39) = (   0.0824879  -0.3015786   0.3221533  )
        40           O   tau( 40) = (  -0.3024187   0.0793527   0.3221533  )
        41           O   tau( 41) = (   0.0000000   0.0000000  -0.1559697  )
        42           O   tau( 42) = (   0.0000000   0.0000000   0.2165080  )
        43           H   tau( 43) = (   0.0000000   0.0000000  -0.0519538  )
        44           H   tau( 44) = (   0.0000000   0.0000000   0.3205239  )

     number of k points=    14
                       cart. coord. in units 2pi/a_0
        k(    1) = (   0.0000000   0.0000000   0.0000000), wk =   0.0312500
        k(    2) = (   0.0000000   0.0000000   0.3355905), wk =   0.0625000
        k(    3) = (   0.0000000   0.0000000  -0.6711810), wk =   0.0312500
        k(    4) = (   0.0000000   0.2886751   0.0000000), wk =   0.1875000
        k(    5) = (   0.0000000   0.2886751   0.3355905), wk =   0.1875000
        k(    6) = (   0.0000000   0.2886751  -0.6711810), wk =   0.1875000
        k(    7) = (   0.0000000  -0.5773503   0.0000000), wk =   0.0937500
        k(    8) = (   0.0000000  -0.5773503   0.3355905), wk =   0.1875000
        k(    9) = (   0.0000000  -0.5773503  -0.6711810), wk =   0.0937500
        k(   10) = (   0.2500000   0.4330127   0.0000000), wk =   0.1875000
        k(   11) = (   0.2500000   0.4330127   0.3355905), wk =   0.1875000
        k(   12) = (   0.2500000   0.4330127  -0.6711810), wk =   0.1875000
        k(   13) = (  -0.2500000   0.1443376   0.3355905), wk =   0.1875000
        k(   14) = (   0.2500000  -0.4330127  -0.3355905), wk =   0.1875000

     G cutoff = 2518.9669  ( 341559 G-vectors)     FFT grid: (108,108, 75)
     G cutoff = 1259.4835  ( 120887 G-vectors)  smooth grid: ( 72, 72, 54)

     Largest allocated arrays     est. size (Mb)     dimensions
     Largest temporary arrays     est. size (Mb)     dimensions

     Check: negative/imaginary core charge=   -0.000003    0.000000

     Initial potential from superposition of free atoms
     Check: negative starting charge=   -0.001889

     starting charge  287.94459, renormalised to  288.00000

[...]
        k(    2) = (   0.0000000   0.0000000   0.3140731), wk =   0.0625000
        k(    3) = (   0.0000000   0.0000000  -0.6281461), wk =   0.0312500
        k(    4) = (   0.0000000   0.2628417   0.0000000), wk =   0.1875000
        k(    5) = (   0.0000000   0.2628417   0.3140731), wk =   0.1875000
        k(    6) = (   0.0000000   0.2628417  -0.6281461), wk =   0.1875000
        k(    7) = (   0.0000000  -0.5256835   0.0000000), wk =   0.0937500
        k(    8) = (   0.0000000  -0.5256835   0.3140731), wk =   0.1875000
        k(    9) = (   0.0000000  -0.5256835  -0.6281461), wk =   0.0937500
        k(   10) = (   0.2276276   0.3942626   0.0000000), wk =   0.1875000
        k(   11) = (   0.2276276   0.3942626   0.3140731), wk =   0.1875000
        k(   12) = (   0.2276276   0.3942626  -0.6281461), wk =   0.1875000
        k(   13) = (  -0.2276276   0.1314209   0.3140731), wk =   0.1875000
        k(   14) = (   0.2276276  -0.3942626  -0.3140731), wk =   0.1875000
     Check: negative starting charge=   -0.002024

     negative rho (up, down):  0.229E-02 0.000E+00
     extrapolated charge  352.53602, renormalised to  288.00000

[...]

     iteration #  1     ecut=    40.00 Ry     beta=0.70
     Davidson diagonalization with overlap
     c_bands:  1 eigenvalues not converged
     ethr =  1.00E-06,  avg # of iterations = 18.2

[...]

     enthalpy old            =   -1668.2079157928 Ry
     enthalpy new            =   -1667.3802799257 Ry

     CASE: enthalpy_new > enthalpy_old

[...]

     Writing output data file HAP_fullopt_40_r1.fullopt.in.save
     Check: negative starting charge=   -0.002024
     NEW-OLD atomic charge density approx. for the potential
     NEW k-points:
        k(    1) = (   0.0000000   0.0000000   0.0000000), wk =   0.0312500
        k(    2) = (   0.0000000   0.0000000   0.3315884), wk =   0.0625000
        k(    3) = (   0.0000000   0.0000000  -0.6631767), wk =   0.0312500
        k(    4) = (   0.0000000   0.2837618   0.0000000), wk =   0.1875000
        k(    5) = (   0.0000000   0.2837618   0.3315884), wk =   0.1875000
        k(    6) = (   0.0000000   0.2837618  -0.6631767), wk =   0.1875000
        k(    7) = (   0.0000000  -0.5675236   0.0000000), wk =   0.0937500
        k(    8) = (   0.0000000  -0.5675236   0.3315884), wk =   0.1875000
        k(    9) = (   0.0000000  -0.5675236  -0.6631767), wk =   0.0937500
        k(   10) = (   0.2457449   0.4256427   0.0000000), wk =   0.1875000
        k(   11) = (   0.2457449   0.4256427   0.3315884), wk =   0.1875000
        k(   12) = (   0.2457449   0.4256427  -0.6631767), wk =   0.1875000
        k(   13) = (  -0.2457449   0.1418809   0.3315884), wk =   0.1875000
        k(   14) = (   0.2457449  -0.4256427  -0.3315884), wk =   0.1875000

     Check: negative/imaginary core charge=   -0.000003    0.000000
     Check: negative starting charge=   -0.001919

[...]

     CASE: enthalpy_new < enthalpy_old

[...]

     CASE: enthalpy_new > enthalpy_old

[...]

     Threshold (ethr) on eigenvalues was too large:
     Diagonalizing with lowered threshold

     Davidson diagonalization with overlap
     ethr =  3.69E-08,  avg # of iterations =  2.3

[...]

     Total force =     0.000251     Total SCF correction =     0.000053
     SCF correction compared to forces is too large, reduce conv_thr

[...]

     number of scf cycles    =  42
     number of bfgs steps    =  36

     enthalpy old            =   -1668.2250875947 Ry
     enthalpy new            =   -1668.2250877970 Ry

     CASE: enthalpy_new < enthalpy_old

     new trust radius        =       0.0013748251 bohr
     new conv_thr            =       0.0000000010 Ry

     new unit-cell volume =   3632.75725 a.u.^3 (   538.31908 Ang^3 )

[...]

ATOMIC_POSITIONS (crystal)
Ca       0.333333333  -0.333333333   0.000823293
Ca      -0.333333333   0.333333333   0.500725678
Ca      -0.333333333   0.333333333  -0.002149030
Ca       0.333333333  -0.333333333  -0.502049258
Ca       0.249449538  -0.001467488   0.249689045
Ca      -0.249464369   0.001484421  -0.250403652
Ca       0.001467488   0.250917027   0.249689045
Ca      -0.250917027  -0.249449538   0.249689045
Ca       0.250948791   0.249464369  -0.250403652
Ca      -0.001484421  -0.250948791  -0.250403652
P        0.399301662   0.368852163   0.250801853
P       -0.399241898  -0.368822417  -0.249039520
P       -0.368852163   0.030449498   0.250801853
P       -0.030449498  -0.399301662   0.250801853
P        0.030419481   0.399241898  -0.249039520
P        0.368822417  -0.030419481  -0.249039520
O        0.330907507   0.486929518   0.252263943
O       -0.330834908  -0.486887150  -0.247721541
O       -0.486929518  -0.156022011   0.252263943
O        0.156022011  -0.330907507   0.252263943
O       -0.156052242   0.330834908  -0.247721541
O        0.486887150   0.156052242  -0.247721541
O       -0.410555517   0.464653234   0.245686459
O        0.410608215  -0.464631268  -0.254088583
O       -0.464653234   0.124791249   0.245686459
O       -0.124791249   0.410555517   0.245686459
O        0.124760517  -0.410608215  -0.254088583
O        0.464631268  -0.124760517  -0.254088583
O        0.337662765   0.254603166   0.070407118
O       -0.337715354  -0.254619988  -0.429506683
O       -0.254603166   0.083059598   0.070407118
O       -0.083059598  -0.337662765   0.070407118
O        0.083095365   0.337715354  -0.429506683
O        0.254619988  -0.083095365  -0.429506683
O       -0.347513975  -0.258868501  -0.065132456
O        0.347657305   0.258950107   0.434774168
O        0.258868501  -0.088645474  -0.065132456
O        0.088645474   0.347513975  -0.065132456
O       -0.088707198  -0.347657305   0.434774168
O       -0.258950107   0.088707198   0.434774168
O        0.000000000   0.000000000  -0.214003341
O        0.000000000   0.000000000   0.286225136
H        0.000000000   0.000000000  -0.071496337
H        0.000000000   0.000000000   0.428733409

     Writing output data file HAP_fullopt_40_r1.fullopt.in.save
     Check: negative starting charge=   -0.001985
     NEW-OLD atomic charge density approx. for the potential
     NEW k-points:
        k(    1) = (   0.0000000   0.0000000   0.0000000), wk =   0.0312500
        k(    2) = (   0.0000000   0.0000000   0.3391060), wk =   0.0625000
        k(    3) = (   0.0000000   0.0000000  -0.6782121), wk =   0.0312500
        k(    4) = (   0.0000000   0.2832585   0.0000000), wk =   0.1875000
        k(    5) = (   0.0000000   0.2832585   0.3391060), wk =   0.1875000
        k(    6) = (   0.0000000   0.2832585  -0.6782121), wk =   0.1875000
        k(    7) = (   0.0000000  -0.5665169   0.0000000), wk =   0.0937500
        k(    8) = (   0.0000000  -0.5665169   0.3391060), wk =   0.1875000
        k(    9) = (   0.0000000  -0.5665169  -0.6782121), wk =   0.0937500
        k(   10) = (   0.2453090   0.4248877   0.0000000), wk =   0.1875000
        k(   11) = (   0.2453090   0.4248877   0.3391060), wk =   0.1875000
        k(   12) = (   0.2453090   0.4248877  -0.6782121), wk =   0.1875000
        k(   13) = (  -0.2453090   0.1416292   0.3391060), wk =   0.1875000
        k(   14) = (   0.2453090  -0.4248877  -0.3391060), wk =   0.1875000

     Check: negative/imaginary core charge=   -0.000003    0.000000
     Check: negative starting charge=   -0.001984

     negative rho (up, down):  0.188E-02 0.000E+00
     extrapolated charge  287.99406, renormalised to  288.00000

     Self-consistent Calculation

[...]

     Threshold (ethr) on eigenvalues was too large:
     Diagonalizing with lowered threshold

     Davidson diagonalization with overlap
     ethr =  1.48E-10,  avg # of iterations =  3.1

[...]

     total energy              =   -1668.22508788 Ry
     Harris-Foulkes estimate   =   -1668.22508788 Ry
     estimated scf accuracy    <          1.7E-09 Ry

     iteration #  6     ecut=    40.00 Ry     beta=0.70
     Davidson diagonalization with overlap
     ethr =  5.80E-13,  avg # of iterations =  3.0

     negative rho (up, down):  0.188E-02 0.000E+00

     End of self-consistent calculation

[...]

          k =-0.2453 0.1416 0.3391 ( 15091 PWs)   bands (ev):

[...]

          k = 0.2453-0.4249-0.3391 ( 15096 PWs)   bands (ev):

   -32.1282 -32.1258 -32.0424 -32.0391 -31.8196 -31.8155 -31.8154 -31.8151
   -31.8132 -31.8132 -14.4636 -14.4315 -14.3856 -14.3669 -14.3306 -14.2181
   -13.5468 -13.4895 -13.3947 -13.3332 -13.2975 -13.2792 -13.2545 -13.2156
   -13.1929 -13.1820 -13.1389 -13.1232 -13.0997 -13.0850 -13.0679 -13.0367
   -13.0240 -12.9764 -12.9679 -12.9590 -12.9284 -12.9195 -12.8899 -12.8826
   -12.8494 -12.7728 -12.7631 -12.7213 -12.7150 -12.6815 -11.6070 -11.5587
   -11.5277 -11.5011 -11.4845 -11.4459 -11.3848 -11.3671 -11.3505 -11.3023
   -11.2796 -11.2590 -11.2348 -11.1960 -11.1834 -11.1319 -11.1202 -11.0983
   -10.8965 -10.8449  -1.3044  -1.1953  -1.1803  -1.0601  -1.0197  -0.9344
     0.5790   0.6001   0.8204   0.8674   0.9074   0.9461   0.9665   0.9863
     1.1095   1.1494   1.1936   1.2823   1.3159   1.3642   1.3913   1.4558
     1.5082   1.5278   1.6031   1.9103   2.7912   2.8639   2.9467   2.9757
     3.1106   3.1923   3.2061   3.2867   3.3008   3.3338   3.3758   3.3936
     3.4223   3.4605   3.4961   3.5385   3.6667   3.6984   3.7537   3.8159
     3.8584   3.9350   3.9782   4.0417   4.0599   4.1231   4.1979   4.2925
     4.3199   4.3940   4.7333   4.7474   4.8409   4.8836   4.9589   4.9950
     5.0254   5.0604   5.0966   5.1481   5.1634   5.2045   5.2221   5.2866
     5.3009   5.3544   5.3946   5.4079   5.4530   5.5282   5.6116   5.6413

!    total energy              =   -1668.22508788 Ry
     Harris-Foulkes estimate   =   -1668.22508788 Ry
     estimated scf accuracy    <          1.2E-10 Ry

     The total energy is the sum of the following terms:

     one-electron contribution =    -528.08578534 Ry
     hartree contribution      =     410.74856375 Ry
     xc contribution           =    -327.74403813 Ry
     ewald contribution        =   -1223.14382816 Ry

     convergence has been achieved in   6 iterations

     Forces acting on atoms (Ry/au):

     negative rho (up, down):  0.188E-02 0.000E+00
     atom   1 type  1   force =     0.00000000    0.00000000    0.00002688
     atom   2 type  1   force =     0.00000000    0.00000000    0.00002547
     atom   3 type  1   force =     0.00000000    0.00000000    0.00000895
     atom   4 type  1   force =     0.00000000    0.00000000    0.00001438
     atom   5 type  1   force =     0.00003474    0.00002446   -0.00001955
     atom   6 type  1   force =    -0.00003592   -0.00002481   -0.00001558
     atom   7 type  1   force =    -0.00003855    0.00001786   -0.00001955
     atom   8 type  1   force =     0.00000381   -0.00004231   -0.00001955
     atom   9 type  1   force =    -0.00000352    0.00004351   -0.00001558
     atom  10 type  1   force =     0.00003944   -0.00001871   -0.00001558
     atom  11 type  2   force =    -0.00000478   -0.00000042    0.00000041
     atom  12 type  2   force =     0.00000957   -0.00001516    0.00001667
     atom  13 type  2   force =     0.00000276   -0.00000393    0.00000041
     atom  14 type  2   force =     0.00000203    0.00000435    0.00000041
     atom  15 type  2   force =    -0.00001791   -0.00000071    0.00001667
     atom  16 type  2   force =     0.00000834    0.00001587    0.00001667
     atom  17 type  3   force =    -0.00002263   -0.00001128    0.00000376
     atom  18 type  3   force =     0.00001394    0.00001371   -0.00000711
     atom  19 type  3   force =     0.00002109   -0.00001395    0.00000376
     atom  20 type  3   force =     0.00000154    0.00002524    0.00000376
     atom  21 type  3   force =     0.00000490   -0.00001893   -0.00000711
     atom  22 type  3   force =    -0.00001885    0.00000522   -0.00000711
     atom  23 type  3   force =    -0.00000411    0.00003690   -0.00000706
     atom  24 type  3   force =     0.00000380   -0.00003280   -0.00000980
     atom  25 type  3   force =    -0.00002990   -0.00002201   -0.00000706
     atom  26 type  3   force =     0.00003401   -0.00001489   -0.00000706
     atom  27 type  3   force =    -0.00003031    0.00001311   -0.00000980
     atom  28 type  3   force =     0.00002651    0.00001969   -0.00000980
     atom  29 type  3   force =     0.00001844   -0.00000031    0.00002289
     atom  30 type  3   force =    -0.00002231    0.00001026    0.00000511
     atom  31 type  3   force =    -0.00000895    0.00001613    0.00002289
     atom  32 type  3   force =    -0.00000949   -0.00001582    0.00002289
     atom  33 type  3   force =     0.00002004    0.00001419    0.00000511
     atom  34 type  3   force =     0.00000226   -0.00002445    0.00000511
     atom  35 type  3   force =    -0.00000739   -0.00002656    0.00000491
     atom  36 type  3   force =     0.00001220    0.00002129    0.00001437
     atom  37 type  3   force =     0.00002670    0.00000689    0.00000491
     atom  38 type  3   force =    -0.00001931    0.00001968    0.00000491
     atom  39 type  3   force =     0.00001234   -0.00002121    0.00001437
     atom  40 type  3   force =    -0.00002454   -0.00000008    0.00001437
     atom  41 type  3   force =     0.00000000    0.00000000   -0.00002397
     atom  42 type  3   force =     0.00000000    0.00000000   -0.00001778
     atom  43 type  4   force =     0.00000000    0.00000000   -0.00003512
     atom  44 type  4   force =     0.00000000    0.00000000   -0.00002586

     Total force =     0.000199     Total SCF correction =     0.000015

     entering subroutine stress ...

     negative rho (up, down):  0.188E-02 0.000E+00
          total   stress  (Ry/bohr**3)                   (kbar)     P=    0.01
   0.00000010   0.00000000   0.00000000          0.01      0.00      0.00
   0.00000000   0.00000010   0.00000000          0.00      0.01      0.00
   0.00000000   0.00000000   0.00000005          0.00      0.00      0.01

     bfgs converged in  43 scf cycles and  37 bfgs steps
     (criteria: energy < 0.10E-06, force < 0.10E-02, cell < 0.50E+00)

     End of BFGS Geometry Optimization

     Final enthalpy =   -1668.2250878795 Ry
Begin final coordinates
     new unit-cell volume =   3632.75725 a.u.^3 (   538.31908 Ang^3 )

CELL_PARAMETERS (alat= 17.62853047)
   1.019122681   0.000000000   0.000000000
  -0.509561340   0.882586131   0.000000000
   0.000000000   0.000000000   0.737232513

ATOMIC_POSITIONS (crystal)
Ca       0.333333333  -0.333333333   0.000823293
Ca      -0.333333333   0.333333333   0.500725678
Ca      -0.333333333   0.333333333  -0.002149030
Ca       0.333333333  -0.333333333  -0.502049258
Ca       0.249449538  -0.001467488   0.249689045
Ca      -0.249464369   0.001484421  -0.250403652
Ca       0.001467488   0.250917027   0.249689045
Ca      -0.250917027  -0.249449538   0.249689045
Ca       0.250948791   0.249464369  -0.250403652
Ca      -0.001484421  -0.250948791  -0.250403652
P        0.399301662   0.368852163   0.250801853
P       -0.399241898  -0.368822417  -0.249039520
P       -0.368852163   0.030449498   0.250801853
P       -0.030449498  -0.399301662   0.250801853
P        0.030419481   0.399241898  -0.249039520
P        0.368822417  -0.030419481  -0.249039520
O        0.330907507   0.486929518   0.252263943
O       -0.330834908  -0.486887150  -0.247721541
O       -0.486929518  -0.156022011   0.252263943
O        0.156022011  -0.330907507   0.252263943
O       -0.156052242   0.330834908  -0.247721541
O        0.486887150   0.156052242  -0.247721541
O       -0.410555517   0.464653234   0.245686459
O        0.410608215  -0.464631268  -0.254088583
O       -0.464653234   0.124791249   0.245686459
O       -0.124791249   0.410555517   0.245686459
O        0.124760517  -0.410608215  -0.254088583
O        0.464631268  -0.124760517  -0.254088583
O        0.337662765   0.254603166   0.070407118
O       -0.337715354  -0.254619988  -0.429506683
O       -0.254603166   0.083059598   0.070407118
O       -0.083059598  -0.337662765   0.070407118
O        0.083095365   0.337715354  -0.429506683
O        0.254619988  -0.083095365  -0.429506683
O       -0.347513975  -0.258868501  -0.065132456
O        0.347657305   0.258950107   0.434774168
O        0.258868501  -0.088645474  -0.065132456
O        0.088645474   0.347513975  -0.065132456
O       -0.088707198  -0.347657305   0.434774168
O       -0.258950107   0.088707198   0.434774168
O        0.000000000   0.000000000  -0.214003341
O        0.000000000   0.000000000   0.286225136
H        0.000000000   0.000000000  -0.071496337
H        0.000000000   0.000000000   0.428733409
End final coordinates

     Writing output data file HAP_fullopt_40_r1.fullopt.in.save

     General routines

     Parallel routines

   This run was terminated on:   3:47:32  18Dec2010

   JOB DONE.